 # Version information for this restart file 
 # current date 2024-11-21 17:19:13.071
 # current working dir /scratch/work/courses/CHEM-GA-2671-2024fa/students/zz10074/comp-lab-class-2024/Week12-IntroAIMD/Runs_Proton
 # Program compiled at                              Sat Dec 12 18:27:15 EST 2020
 # Program compiled on                                         cs001.nyu.cluster
 # Program compiled for                                                nyu-intel
 # Source code revision number                                       git:8c64c6e
 &GLOBAL
   PRINT_LEVEL  LOW
   PROJECT_NAME proton_aimd_1ns_every0.5fs
   RUN_TYPE  MD
   WALLTIME 21600
 &END GLOBAL
 &MOTION
   &GEO_OPT
     OPTIMIZER  BFGS
     MAX_ITER  100
     MAX_DR     3.0000000000000001E-03
     &BFGS
     &END BFGS
   &END GEO_OPT
   &MD
     ENSEMBLE  NVT
     STEPS  2000
     TIMESTEP     4.9999999999999994E-01
     STEP_START_VAL  1000
     TIME_START_VAL     4.9999999999999636E+02
     ECONS_START_VAL    -1.1027999833048329E+03
     TEMPERATURE     3.0000000000000000E+02
     &THERMOSTAT
       TYPE  GLE
       REGION  MASSIVE
       &GLE
         NDIM  5
         A_SCALE     1.0000000000000000E+00
         A_LIST     1.8595758612559999E+02    2.7263853498399998E-01    1.1526100454610001E+01   -3.6414578262600003E+01 \
             2.3173375816020001E+02
         A_LIST    -2.7809524712060002E-01    8.5951591808710006E-05    7.2189048017650004E-01   -1.9844539343859999E-01 \
             4.2409257583420001E-01
         A_LIST    -1.4825808131210000E+01   -7.2189048017650004E-01    1.3590902121280000E+00    5.1498896280349999E+00 \
            -9.9949268450990001E+00
         A_LIST    -1.0372189126880000E+01    1.9844539343859999E-01   -5.1498896280349999E+00    2.6661910891169999E+01 \
             1.1507715495310000E+01
         A_LIST     2.1801346360420001E+02   -4.2409257583420001E-01    9.9949268450990001E+00   -1.1507715495310000E+01 \
             3.0958394565589998E+02
         &THERMOSTAT_ENERGY
              -2.2525377369531376E-04
              -1.8978585501976429E-04
              -6.3884329321688290E-04
               4.4653819011346843E-03
              -1.0553131036406153E-02
              -7.6561909150804218E-04
              -2.4520110658500013E-03
              -8.6137378174475099E-04
               5.4313578559465944E-03
               4.4333031891830950E-03
               1.1181317676589260E-02
              -2.3395378733318123E-03
              -1.1328212772512038E-03
              -3.9662180033417276E-03
               5.0390581831105397E-03
              -5.3777681585063146E-03
               3.4786029769600757E-03
              -4.9780798628407865E-03
               3.4171947306674095E-03
              -6.3233354943284585E-06
               2.5940369076681920E-03
               1.3841082096205553E-03
              -1.9484852778963355E-03
               1.1622354662737516E-03
              -7.3840519806029434E-03
              -5.0991397484007181E-03
               4.3884940866125929E-04
               4.5516261334564590E-03
               1.4743884242747380E-03
               3.1152065731749755E-03
              -9.6666883086305114E-03
              -7.8203072990219963E-04
               7.9572742752001026E-03
               2.7357412321881206E-03
              -9.1895694947162730E-03
               8.9892272542237434E-03
              -7.8756591883096102E-04
               7.6035826391444416E-04
               5.0154613615672550E-04
              -7.3317462997028477E-03
               6.4597627326216040E-03
              -2.5942693629930566E-04
               4.8516976245309160E-03
               3.2630139619371831E-03
              -4.6961091581028975E-03
               1.6206722540965945E-03
              -5.1546193949773894E-03
               1.3347570012957224E-04
               5.6049718015343196E-04
              -4.8658693301579375E-03
               2.2080769057863637E-03
              -2.4730667163770327E-03
              -7.6713561910994391E-03
               1.6590759083029349E-03
              -4.7778648711959085E-03
               1.8938196376971977E-03
              -2.7528942849440929E-04
               2.3751981471102353E-03
               1.7814517539542331E-04
               3.4314701873292717E-03
              -3.6691703974043050E-03
               8.2961829342222267E-04
               1.0056877174668915E-02
              -8.9948123240931189E-04
               1.5172666282765464E-03
               3.7999669497369615E-03
               2.0323923001236491E-03
               3.3486151817280580E-03
               1.5711648771948373E-03
              -5.9856513565302019E-04
               2.1946898263140628E-03
              -6.6424942246732215E-03
              -2.2454585658882712E-03
              -3.1980512377072900E-03
              -5.1746366442118504E-03
              -1.3733857175862391E-03
               5.8616987207319267E-03
               1.3658974485592666E-03
               1.0334660553336841E-02
              -3.2466864896027662E-03
               2.8675793852660149E-04
              -2.5212581338412425E-03
               2.1149320473115071E-03
              -5.8241687040573662E-04
               7.5254894500181068E-03
               3.5114172673194779E-03
              -5.7329717355723928E-03
               2.5806776735418737E-03
               6.0586119879432517E-03
              -4.7945090924757664E-03
               1.8667270140678783E-03
              -9.7088800035535997E-03
               2.8388221620506129E-03
               1.4653975775563220E-03
              -9.3934879736535058E-03
               1.0935844330790282E-02
               1.0761762021036049E-02
               2.4270145159028403E-03
               4.7232379244998247E-03
               2.6695718504013500E-03
              -4.7225181086456590E-04
              -6.4410951179441206E-03
               3.0119504128626080E-03
              -4.0142809399045087E-03
               5.4933393101327249E-03
               9.7101381509949241E-04
               4.9368274134198066E-03
              -7.7470563225202525E-04
               4.8143600909062775E-03
              -2.5415227553898423E-03
               1.5170205239256498E-03
              -6.7863511109007065E-03
               6.6682979341725996E-03
               1.0549427203572027E-02
               3.0799494525169226E-03
               1.6513944285170671E-03
              -7.5202861887078082E-03
               4.4413533871138057E-03
              -1.3176478717192258E-03
              -1.5846670213131232E-03
              -8.5909735392561276E-03
               5.4444435551674972E-03
               5.0462059826446833E-03
              -3.3204723341552734E-03
              -4.1590213007576676E-03
              -1.6222143337594429E-03
               3.1263552600315982E-03
              -3.0936419746646236E-03
               5.8777428140085498E-03
              -8.1929897911713571E-03
              -5.3609762780169636E-03
               5.2548597515123044E-03
               2.3373049651184245E-03
               2.9871830188014465E-03
              -3.8995462978509924E-03
               1.0134243706180046E-03
               3.1223735650603583E-04
              -4.9532530537121080E-03
              -2.0660516965868552E-03
              -1.0339176447874902E-02
               9.3155407889070046E-03
              -1.4780221257459138E-04
               5.7907838759726112E-03
               2.2323057506637130E-04
              -1.5315057322368003E-03
               3.8287596318658450E-04
               1.1772067769737609E-02
              -7.3073411285875557E-04
               1.0365616601247974E-04
               2.0530188661269477E-03
              -6.2112806958583774E-03
               4.9617822718593021E-03
              -1.0310573341964593E-03
              -1.2353878577562466E-03
              -2.4621358754978260E-05
               9.7130329199763340E-04
               8.7213645930774367E-04
              -5.4509929560837781E-03
              -3.7377523788816132E-03
               6.2538954256339194E-03
               1.6509132502859677E-03
              -2.8821472301994453E-03
              -2.2201887972239757E-03
              -8.2029075421947593E-04
               5.3431511860370226E-03
               7.4804720031020778E-03
               1.0967248372869569E-02
              -1.0541484988610019E-02
              -2.5701186371647798E-03
              -1.7275545428607514E-04
               9.3918493542620332E-04
              -4.5654592298371485E-03
              -1.9487567860849962E-03
              -2.3435591010975867E-03
              -5.6680075516585843E-03
               1.5314626345900196E-04
               9.7696419124993928E-03
               1.4841683842289673E-03
               4.5024286979361230E-04
              -2.2432354362091141E-03
               2.8606553506669232E-03
               6.2041716049668419E-03
               3.2440452089465679E-02
              -7.2584938434646345E-03
               8.3407583689193237E-04
               6.8144733682890619E-04
               3.2354600679749502E-03
               6.8662724491885309E-04
              -1.8472361224534080E-03
              -4.9305901051070371E-03
               8.1994243466674264E-04
               3.8230157015087859E-03
              -2.6094033472294178E-04
              -3.1927699390252987E-03
               2.3106785659246787E-03
               8.0064834739049587E-03
              -5.7455759946990290E-03
              -1.4990381498261669E-03
               2.0901605639042564E-03
              -5.0956796894583529E-03
               9.0746353093971023E-04
               4.5013868314610213E-04
              -1.0039285173034174E-03
               4.5789600815826946E-03
              -2.4171014805435382E-03
              -8.9848080085405038E-03
               4.1615436494004156E-03
               8.9033018191931254E-03
              -4.8674289121900171E-03
               6.6132703658750604E-03
              -7.0195390534090931E-03
               1.7480225604505953E-03
               7.0812314969244004E-03
               2.1753141608881386E-03
              -9.4390046914928118E-03
               2.2187228894035901E-03
              -3.8710396863180134E-03
               8.0370409911002128E-03
               3.7764859869032293E-03
               3.4247648400957081E-03
               3.5945296022757813E-03
              -1.6777680385388636E-03
              -9.0963937496025306E-03
               7.8282582355471940E-03
               8.7060682587055348E-04
              -4.5822913912124848E-05
               9.8847997863737080E-04
               2.0937396224974527E-03
              -3.2270767474769460E-03
              -2.6196474807879343E-03
              -3.5990958625611389E-03
               4.8089248256291137E-03
               1.0650160953475108E-02
              -2.9744612926533328E-03
              -3.9447239105546723E-03
              -1.9387550218284686E-03
              -1.2566315954789960E-03
               1.8754321634374099E-03
              -3.0253680225712791E-03
              -1.1220921768278018E-03
               4.6337642215501303E-04
               3.1286070981249420E-03
               2.7013736070077982E-03
               4.2466276175247980E-03
              -5.8367771061172292E-03
              -1.0303618175060750E-03
              -2.4683886427984440E-03
               1.8441221182095889E-03
              -2.3765625228237297E-03
              -2.8874819321811671E-04
               4.8255951516937914E-03
               1.5803103222480088E-03
              -5.2030128830080373E-03
              -3.8937858525325019E-03
               2.3378450348647095E-03
              -3.2769952079752364E-03
              -3.6275001637396092E-03
              -1.0712657134412981E-03
              -3.8241457867027404E-03
              -2.0388652774603207E-03
               5.4318828572305295E-03
               4.3874521832686850E-03
               7.6009000746154083E-03
              -2.1458018533987915E-04
               5.4340697660689588E-03
               6.2610938873271108E-04
              -1.0465443560645529E-04
               1.7966376420213454E-03
              -3.1938460845929856E-03
               1.9325240625411785E-03
              -7.2857006446536816E-04
              -6.7449041910061609E-03
               7.5149217480552219E-03
               4.4447974592043225E-03
               4.6247759882256541E-04
               3.2099120031404505E-04
              -1.2431548364508924E-02
               9.4856596374068031E-03
               1.4250729373772623E-03
               1.5457408862962041E-03
              -1.3537680200170848E-03
              -1.1982319079824845E-02
               1.6003822230475583E-03
               4.4891654444858221E-03
              -3.4908564391326071E-03
              -3.8211662786118740E-03
               7.7811263679339316E-04
              -7.6668884012116370E-03
              -7.5073885541931040E-03
               9.2613000200227301E-03
               9.2602897765565375E-03
              -1.7402133787909081E-04
               4.1017622637189097E-03
               8.1494850022162998E-04
              -3.1294750453084429E-04
               4.9392793052119499E-03
              -4.2115479974447236E-03
               9.7850958939698935E-03
               7.0295825935513226E-04
              -9.3402527144799165E-03
              -2.6115521347143318E-03
               1.0854135822643541E-03
               6.1188155412525676E-03
               9.1915283155698680E-03
               2.7302284134144029E-03
              -3.9546126418606208E-03
              -1.3010973894214517E-03
               2.4373457224670758E-03
              -1.8129431110319174E-04
               9.8144580693204815E-03
              -2.1923109405798844E-04
              -3.1559837403256057E-03
              -8.5728094932480982E-04
               2.9940032852973793E-03
              -1.5281178775807672E-03
              -1.1072266031411332E-03
              -5.4094525390638694E-03
              -3.6503170537512493E-03
              -4.9064162327414982E-03
              -6.0406076408892897E-04
               3.7416746962961453E-03
              -2.0016832010794983E-03
               1.5629376778900149E-03
              -1.6440230733131395E-03
               3.9375762993764558E-03
               1.7741350914158033E-03
               2.3807445611140135E-03
               1.7188052018677130E-03
               2.4650958663733468E-03
               3.9812915952183595E-03
              -6.3945797937825866E-03
               2.6133624513474668E-04
               2.9100049557505177E-03
               1.5722976486893714E-03
              -2.9358992179903134E-03
               2.6009282421428611E-03
               4.3714201234857945E-03
              -1.4708071422083295E-03
               7.8346905683260163E-04
               4.0418877587176955E-03
              -5.5851016221392397E-03
              -2.0897845825740401E-03
               1.1100190706744048E-02
              -6.9754654068127303E-04
               2.0867304107964934E-03
               5.5517844942746400E-03
               3.8263538953782466E-03
              -6.9841486823531149E-03
               6.0105472925942394E-03
              -3.3583288019760770E-03
              -1.3458542076648277E-03
               2.7496117344352174E-03
              -7.4816934231735363E-03
               4.1529693963774407E-03
              -2.5806474542646638E-03
              -3.7123010210835189E-03
               1.5889801306245694E-03
               4.0903720541524682E-03
              -8.9918617132512067E-03
               1.9521735627598125E-03
               2.5473173806489242E-04
               3.3552661914002949E-03
               6.4568286282026821E-03
               5.5885660136055513E-03
               2.4986431179703468E-04
               2.8925411829530982E-03
               1.6442852759231723E-02
               2.7329948780924955E-04
              -1.7164202847642664E-02
              -6.0435101062548627E-03
               3.9340784905442803E-03
               6.2745800431960545E-04
               9.5767987821494989E-04
               3.3449874469455555E-04
              -4.8906843566406000E-04
              -2.9712350962044134E-03
              -1.1708219222606791E-02
              -5.2643786545701387E-03
              -2.7447269597029038E-03
               6.8837350175997613E-03
               1.7342293942862819E-03
               2.7248054353139275E-03
              -1.9619289149172838E-03
              -2.0693007789907062E-03
              -5.3241025472014446E-03
              -5.8005847248956107E-03
               6.3119687227098785E-04
               5.4342812897012422E-03
               6.2180510161871155E-03
              -4.6757463463293373E-03
              -2.0400024414104281E-03
               4.6041589735808363E-03
              -1.8134103882378226E-03
              -5.7840249074913707E-03
               5.2633864420033559E-03
               7.2145831111141280E-04
               1.7048194129531257E-03
               2.9042748801694440E-04
              -1.9051078082392048E-03
              -4.0428471078929641E-03
              -1.3940074974194386E-03
               3.1760998416128141E-03
              -1.2467524776113583E-03
              -1.9455062226069620E-03
              -7.6114160672048072E-04
               1.4590664498891279E-03
               2.5191476231097953E-04
              -2.0747720287702044E-03
              -5.2083687023733874E-03
               2.8190840549105634E-03
               3.9960044433289448E-03
               3.9615333436030919E-03
              -5.0454003735856288E-03
              -5.2117680809515591E-03
               1.4396631611709710E-03
               3.3675183695765797E-03
               2.8587769812377932E-03
               2.5377880351232602E-03
              -1.4232656199869448E-03
               5.4099066944794845E-04
              -1.1138960164445361E-03
               6.0767023832578623E-04
              -4.4687815702411492E-03
              -2.5630205879133448E-03
               8.6659874633588669E-03
              -3.9906865606060167E-03
               7.3739361172081141E-04
              -4.8031062638386624E-03
               1.9743537479662752E-03
               4.7231616891289206E-03
              -2.9980050301814344E-05
              -7.8876160392866018E-03
              -1.0398833890772520E-02
               3.8387425751339761E-03
               1.0809183655533754E-02
               2.9995751347291480E-03
              -3.8654591687956796E-03
              -3.0043084788406215E-03
               6.3959499574964989E-05
               2.9914517399577537E-04
               9.7194060912207201E-03
               2.0382808958058106E-03
              -1.2357122269687892E-03
               4.0771747692937383E-03
              -1.1833038417676735E-03
               6.1229854441824227E-03
               6.1921358809812000E-03
               6.2348851972520635E-03
               4.4761529684747749E-03
              -1.0563291311221149E-02
              -3.5251215941301899E-03
              -5.0213711288005676E-03
               5.6765752596122879E-03
              -2.5350280279442562E-03
               2.1992198285907054E-04
              -5.1863613631068671E-03
              -7.1312128620998659E-03
              -1.1575337143667659E-03
               3.6784108596566183E-04
              -1.0760380364168717E-04
               7.0240857968222603E-03
               9.1379833774690618E-03
              -2.4472836192956570E-03
               3.9675312605845772E-03
               7.3981571255379141E-03
               5.6633302094498631E-03
              -7.5082430536805899E-03
              -4.6183009282338150E-03
               8.6211244448417619E-04
               1.7989105527452347E-03
               4.5703280331068751E-04
              -2.1735648268973783E-04
               2.1766062953646670E-03
              -3.5555039540469792E-03
              -3.9180496223313694E-03
               3.3342876252708807E-03
              -1.6010148533459813E-03
              -9.6124598924565762E-04
               8.6317244087306976E-04
               5.3002081004985139E-04
              -9.3512060924634901E-04
              -4.9942896386491052E-04
               4.3596574585698942E-03
               6.6580016680425763E-03
               1.5300453233246427E-03
              -5.2120709526375765E-03
              -4.9982100765646404E-03
               1.7330957854472290E-03
               2.6393860782105809E-03
              -1.1207545769945215E-03
               3.6000221890370087E-03
               3.8435702520722794E-03
               9.0893873448923256E-03
              -7.8241560964010734E-03
              -4.4740824310368209E-05
              -8.9033830683310088E-04
               1.6434048459747727E-03
               6.5749521815534602E-04
               5.3419802274134809E-03
               2.0528641678834460E-03
               5.5262463462943325E-04
               1.3568760460475940E-03
              -1.0221704253751013E-02
               1.6758046491831925E-02
              -2.9143686998923972E-03
              -6.2601403441819754E-03
              -3.1937231199719034E-03
               5.6958819329754997E-03
               5.3688073375512237E-03
              -1.2619053577774216E-03
               1.7860931534049009E-03
               2.4525886779151536E-03
              -4.8115074154840252E-03
              -9.3883858041478186E-03
               1.0192624699386645E-02
              -7.8492299315943113E-03
              -5.8340340469739552E-03
               3.7569178650401457E-03
               3.0528660221325549E-03
              -5.9695733091430460E-04
              -1.1413804314705015E-02
               4.7113172260979715E-03
               3.8961707831405368E-03
               2.8964906463274979E-04
               6.6153685321968198E-04
               1.6980823735757954E-03
              -3.1537957858192227E-03
               1.2686064109935736E-03
               6.6862224874496344E-04
               1.2752456454027329E-03
               4.6266935789195315E-03
               2.1964633351437353E-03
              -5.5127902027557515E-03
              -8.6431924440645200E-04
               1.3859647321028976E-03
              -8.7279908280488177E-05
              -4.2196548731208413E-04
              -3.4650586321805571E-03
              -1.2269298326763687E-03
               6.7637335885881106E-03
               6.1186344994163834E-04
              -3.8035121657496143E-03
              -5.7508851225432098E-03
               4.4902172009694827E-03
               2.8516847459087763E-03
              -2.9048663528143067E-03
               3.6697303650832596E-03
              -6.2271360241211923E-03
               1.0051928252703773E-02
              -3.7511243000529562E-04
              -5.5364425074892580E-03
              -4.7046924109449571E-04
              -1.7815805712394241E-05
              -2.9976373328713894E-03
              -8.7248080336170834E-04
              -2.9839463949941610E-03
              -7.0546108808779489E-03
              -4.1626447435400057E-03
               1.0234554798575501E-02
               2.6797016974962201E-03
               4.3658874779586221E-03
               2.6419725173813515E-03
               1.3008800490837127E-03
               1.7148374586262859E-03
              -4.1875511794362569E-03
              -8.1327553050091069E-04
              -4.8006090882076315E-04
              -2.5013879113689659E-03
               3.4366547645800225E-03
              -1.4264848595361961E-03
              -1.5557156259351371E-03
              -2.9225974486489044E-03
              -2.3144098833410369E-03
              -3.2904364212200422E-03
               2.2856211604916168E-03
               3.1019476953876419E-03
               9.2867035131509266E-03
               9.2112370434572714E-03
              -7.3838184741849954E-03
         &END THERMOSTAT_ENERGY
         &RNG_INIT
Wiener process for Thermostat # 1        1 F T T  -9.8236738167888460E-01         226733040.0        4248387519.0        1164353849.0        2758509449.0        3644127687.0        1764793484.0             12345.0             12345.0             12345.0             12345.0             12345.0             12345.0             12345.0             12345.0             12345.0             12345.0             12345.0             12345.0
Wiener process for Thermostat # 2        1 F T T  -1.4171306107827426E+00        1528154308.0        2775625301.0         197130159.0        1452211673.0        1835562137.0        1983376171.0        3692455944.0        1366884236.0        2968912127.0         335948734.0        4161675175.0         475798818.0        3692455944.0        1366884236.0        2968912127.0         335948734.0        4161675175.0         475798818.0
Wiener process for Thermostat # 3        1 F T T   8.6049543281786645E-01        2248570378.0        1724762616.0          52903713.0        3229622658.0        3199004837.0        4241126217.0        1015873554.0        1310354410.0        2249465273.0         994084013.0        2912484720.0        3876682925.0        1015873554.0        1310354410.0        2249465273.0         994084013.0        2912484720.0        3876682925.0
Wiener process for Thermostat # 4        1 F T T  -1.5460863137690717E+00         957380376.0         510326667.0        2247033635.0        2033071685.0        3054261466.0        3462352516.0        2338701263.0        1119171942.0        2570676563.0         317077452.0        3194180850.0         618832124.0        2338701263.0        1119171942.0        2570676563.0         317077452.0        3194180850.0         618832124.0
Wiener process for Thermostat # 5        1 F T T   1.5428690481661575E-01        4203301200.0         738999836.0        1485820986.0          20648636.0        2223680357.0        4294941489.0        1597262096.0        3906379055.0        3312112953.0        1016013135.0        4099474108.0         275305423.0        1597262096.0        3906379055.0        3312112953.0        1016013135.0        4099474108.0         275305423.0
Wiener process for Thermostat # 6        1 F T T   7.0411917217518150E-01        1265311014.0        3687607523.0        1792102642.0         142025920.0         459804801.0        1211121065.0          97147054.0        3131372450.0         829345164.0        3691032523.0        3006063034.0        4259826321.0          97147054.0        3131372450.0         829345164.0        3691032523.0        3006063034.0        4259826321.0
Wiener process for Thermostat # 7        1 F T T  -9.5744195640119531E-02        4040223344.0        4246262317.0         329086624.0          28777921.0        2946509694.0        1489700490.0         796079799.0        2105258207.0         955365076.0        2923159030.0        4116632677.0        3067683584.0         796079799.0        2105258207.0         955365076.0        2923159030.0        4116632677.0        3067683584.0
Wiener process for Thermostat # 8        1 F T T  -1.2413826789147817E-01         252045112.0        2848200345.0         154646410.0        1271924195.0        1873079261.0        3351978939.0        3281794178.0        2616230133.0        1457051261.0        2762791137.0        2480527362.0        2282316169.0        3281794178.0        2616230133.0        1457051261.0        2762791137.0        2480527362.0        2282316169.0
Wiener process for Thermostat # 9        1 F T T   1.0331244080464512E+00        3784506675.0        1914172684.0        3527875272.0        1610827989.0        3855196701.0        1117597481.0        3777646647.0        1837464056.0        4204654757.0         664239048.0        4190510072.0        2959195122.0        3777646647.0        1837464056.0        4204654757.0         664239048.0        4190510072.0        2959195122.0
Wiener process for Thermostat # 10       1 F T T   2.1466585360569199E-01        3057685686.0        2869029583.0         411221469.0        2821893460.0         322924656.0        1143227575.0        4215590817.0        3862461878.0        1087200967.0        1544910132.0         936383720.0        1611370123.0        4215590817.0        3862461878.0        1087200967.0        1544910132.0         936383720.0        1611370123.0
Wiener process for Thermostat # 11       1 F T T  -4.4132046785776799E-02        1554543736.0        2717576499.0        4135075403.0        2618383353.0         642871762.0         249586537.0        1683636369.0         362165168.0         814316280.0         869382050.0         980203903.0        2062101717.0        1683636369.0         362165168.0         814316280.0         869382050.0         980203903.0        2062101717.0
Wiener process for Thermostat # 12       1 F T T  -5.6161533877704317E-01        1770324141.0        3770017049.0         190859559.0         764828178.0        2918138424.0         736540625.0         272317999.0         166758548.0         310112982.0         201045826.0        1680231254.0         118290799.0         272317999.0         166758548.0         310112982.0         201045826.0        1680231254.0         118290799.0
Wiener process for Thermostat # 13       1 F T T   9.7554409384929153E-01        3627045108.0        1898589428.0        2752141753.0          85759421.0        2499273175.0        1137986601.0        2245755202.0        1652682525.0        2865544364.0         721509566.0         209733568.0         592362218.0        2245755202.0        1652682525.0        2865544364.0         721509566.0         209733568.0         592362218.0