 # Version information for this restart file 
 # current date 2024-11-21 19:28:49.738
 # current working dir /scratch/work/courses/CHEM-GA-2671-2024fa/students/zz10074/comp-lab-class-2024/Week12-IntroAIMD/Runs_Proton
 # Program compiled at                              Sat Dec 12 18:27:15 EST 2020
 # Program compiled on                                         cs001.nyu.cluster
 # Program compiled for                                                nyu-intel
 # Source code revision number                                       git:8c64c6e
 &GLOBAL
   PRINT_LEVEL  LOW
   PROJECT_NAME proton_aimd_1ns_every0.5fs
   RUN_TYPE  MD
   WALLTIME 21600
 &END GLOBAL
 &MOTION
   &GEO_OPT
     OPTIMIZER  BFGS
     MAX_ITER  100
     MAX_DR     3.0000000000000001E-03
     &BFGS
     &END BFGS
   &END GEO_OPT
   &MD
     ENSEMBLE  NVT
     STEPS  2000
     TIMESTEP     4.9999999999999994E-01
     STEP_START_VAL  1997
     TIME_START_VAL     9.9849999999998249E+02
     ECONS_START_VAL    -1.1027999833048329E+03
     TEMPERATURE     3.0000000000000000E+02
     &THERMOSTAT
       TYPE  GLE
       REGION  MASSIVE
       &GLE
         NDIM  5
         A_SCALE     1.0000000000000000E+00
         A_LIST     1.8595758612559999E+02    2.7263853498399998E-01    1.1526100454610001E+01   -3.6414578262600003E+01 \
             2.3173375816020001E+02
         A_LIST    -2.7809524712060002E-01    8.5951591808710006E-05    7.2189048017650004E-01   -1.9844539343859999E-01 \
             4.2409257583420001E-01
         A_LIST    -1.4825808131210000E+01   -7.2189048017650004E-01    1.3590902121280000E+00    5.1498896280349999E+00 \
            -9.9949268450990001E+00
         A_LIST    -1.0372189126880000E+01    1.9844539343859999E-01   -5.1498896280349999E+00    2.6661910891169999E+01 \
             1.1507715495310000E+01
         A_LIST     2.1801346360420001E+02   -4.2409257583420001E-01    9.9949268450990001E+00   -1.1507715495310000E+01 \
             3.0958394565589998E+02
         &THERMOSTAT_ENERGY
               8.1107957524074255E-04
               3.8059927131770281E-03
              -1.0653225913379886E-03
               1.3570605968640538E-03
              -1.1198015989576258E-02
              -9.1240527539154022E-04
              -7.4890461662907070E-03
              -4.2192738560142351E-04
               1.0958984730846029E-02
               1.7349589587347810E-03
               1.1036892220158559E-02
              -1.5982651347525632E-03
              -6.8094263125468213E-03
               1.2731915921332688E-03
               2.4487476324654071E-03
              -9.7138683613801277E-03
               9.3747304254244122E-03
              -8.9630872699551552E-03
               2.4633184261201859E-04
               4.6060276511082918E-03
               4.7321085920578026E-04
               1.3207660177902470E-02
              -5.2731307471890840E-03
              -3.8048727997193861E-03
              -2.7504622179272856E-03
              -9.5252832474210201E-03
              -2.0231419462438914E-03
              -6.1197799355558306E-04
               1.1581389882274666E-03
               4.9491845880956500E-03
              -5.9666443662729808E-03
              -1.8649103124634134E-03
               8.4053095839057741E-03
              -3.7081716623386216E-03
              -1.9974937956692236E-03
               9.5472561598159006E-03
               3.2606683138148664E-03
              -6.9926236044122250E-03
               3.0462832772849336E-04
               1.7147411731016041E-03
               1.0335383826917746E-02
              -1.4251299226845994E-02
               6.3269555423635720E-03
               6.2262892916411985E-03
              -6.2829884314184931E-04
               4.3925619752559104E-03
              -7.2057813456059333E-03
              -4.8986449412572506E-05
               6.5489200817137839E-03
               3.9069746536654617E-03
              -1.8031571733472041E-03
               4.1556774551624034E-03
              -1.0850511512937330E-02
              -8.2945235935489043E-03
              -8.9725025187670018E-03
               6.7451875287987389E-03
               9.4982954656106292E-04
              -1.9848846535094004E-03
               4.8737005101679000E-03
               5.7510525010938673E-03
              -8.1650022886572461E-04
              -2.8860519732492392E-03
               1.5696672425790932E-02
              -2.4182188774140609E-03
               4.7933938496221521E-03
               5.4703752576126538E-03
              -3.5675845121554404E-03
               4.7789033573110151E-03
               5.6965031110775338E-03
              -3.7551841414669176E-03
              -1.2351469871396499E-02
              -4.8807921954631172E-03
              -8.6843473993131279E-04
               1.5377739425271094E-03
              -5.3443471147020449E-03
              -6.0136900612650810E-03
               8.3651527535906142E-03
              -8.8661230961009224E-03
               9.8255817753516647E-03
              -7.6406835277923390E-04
               4.9278867023018211E-03
              -4.8355044619383496E-03
               4.7783944982663040E-04
              -1.5668172564796342E-04
               1.3375048961617607E-02
              -4.9706256146120308E-03
              -4.0509302711397386E-05
               2.3877416969852344E-03
              -1.0033667416512750E-04
              -5.4774580523288671E-03
               1.6185685692145626E-03
              -1.2940914292590712E-02
               4.2645009367495131E-03
              -5.2392176473124051E-03
              -3.1660959780411852E-03
               9.8767852702186035E-03
               9.6963639669002365E-03
               1.9535061282569365E-04
               6.9795686132920545E-03
               4.8091429343401753E-03
              -5.4328869834598947E-03
              -1.1539431260949404E-03
               8.6634140616369832E-03
              -2.0041569288423563E-03
               3.0439327164110868E-03
               1.0214764185276927E-02
               7.1437470182010333E-03
              -4.4401847138614654E-03
               5.7329390279865083E-03
               1.2166589844917451E-04
               1.7218379627978112E-03
               4.6283474906149546E-03
               1.4729915794402051E-03
               1.1538446760301850E-02
               5.3878474015316207E-03
              -4.3748415200930302E-03
              -4.6147398870622844E-03
               8.2036429270182856E-03
              -4.0169181188153043E-03
              -6.2699273157593898E-03
              -2.8011471560031300E-03
               3.2323036410096774E-03
               6.2255483050205488E-03
               4.2282700649901098E-03
              -8.9500857268974918E-03
              -3.2002924232195076E-03
               3.8063717282448774E-03
              -4.7154058643990131E-03
               6.6878155435983189E-03
              -4.8244676765204671E-03
               2.8533329515336488E-03
               1.2250832290412001E-02
              -4.8119809924077502E-03
               1.0782699440181533E-03
              -4.6351408560518113E-03
               2.1816972727186509E-03
               3.5124841421309326E-04
              -9.5241793573621197E-03
               9.4758415677881477E-04
              -3.4198839208106104E-03
               6.4957374415843755E-03
               7.1012961395421964E-03
               4.6289043881496163E-03
              -5.6803943941083589E-03
              -5.6475783862383611E-03
              -4.1958833865187676E-04
               1.1173281582624617E-02
               3.0226898295770449E-03
              -2.0179710222943729E-03
               6.2089895462096156E-03
              -1.5504634456954275E-02
               6.7347836070000191E-03
              -2.7919652757556418E-03
              -2.1536497128738881E-03
               6.1752893298422954E-03
               2.1747430772129624E-03
               4.3730688052184201E-05
              -3.5765414153449177E-03
              -8.8328457057494335E-03
               6.5613034228426091E-03
               4.1561044852147563E-03
              -3.8218008981855938E-03
              -4.2667105891724686E-03
               2.0704139787083662E-03
               1.3124789270905532E-02
               6.9533160827209960E-03
               4.9854330809068264E-03
              -1.7978598224272769E-02
              -3.8901355154406819E-04
              -1.3956791241402286E-04
              -4.6226037742762623E-03
              -1.2938762906886726E-03
               2.5277912080640410E-03
              -4.8576084383323724E-03
              -6.7728221321218451E-03
              -2.4485057537970293E-03
               7.8180685703529377E-03
               5.1977200651179070E-03
              -4.4558928677012801E-03
               3.8153511915764260E-03
               1.0195387276642166E-03
               1.6877986627811335E-02
               3.1223854928553396E-02
              -7.0327352067567992E-03
              -1.7235516068921710E-04
              -1.7172508282027028E-03
               1.0408774841018447E-02
               2.3795175712125840E-04
              -9.3930317028750893E-03
              -1.2271555397661766E-03
              -3.2372734862048183E-03
               5.2442668360543955E-04
               4.1306855927572828E-03
              -4.2940613182961500E-04
               5.0933923989214579E-04
               1.0236526312700948E-02
              -4.0107357774707289E-03
              -1.9725432017568332E-03
              -1.1900166187120968E-02
               1.9549572695290911E-03
               3.5459086585976829E-03
               5.4199157012994343E-03
               2.7098591237803499E-03
               6.6591528067808702E-03
              -9.1088298499533600E-03
              -1.0078590990840989E-02
               1.0558495718173522E-02
               5.9399094905252898E-03
              -8.3879357159688320E-03
               5.6788562889358782E-03
              -2.2115032778665831E-03
              -1.5036297023242979E-05
               1.6876417127076632E-03
               9.5300279802745750E-03
              -1.3536355261273667E-03
               2.1325533635355972E-03
              -6.5712265612081272E-03
               8.6792746890863807E-03
              -4.3595344328740161E-03
               3.8208861426814369E-03
               1.3224103353827734E-03
              -3.4572867289180695E-03
              -1.7439784497240398E-02
               1.2272232949789273E-02
               9.5223231222131138E-03
              -5.2640793289586933E-03
              -6.2155010976254945E-03
               7.0782833427462900E-04
               2.7388698910654143E-03
               2.6158408019547811E-03
              -6.3848789601229725E-03
               3.1963128737629298E-03
               1.0951007428376800E-02
               1.4496758967404702E-03
              -2.1243296068271375E-03
              -2.6043029862839687E-03
              -5.5810378738677998E-03
               1.2965146353781979E-03
              -3.4389579825914360E-03
              -2.3989510819420403E-03
               7.7079315815783440E-03
               8.9782721905144816E-03
              -1.1550904336219661E-03
               1.6198891691164927E-03
              -5.2869478900329355E-03
              -1.7068660811690587E-03
               9.6346018740727630E-04
               9.4308298946344307E-04
              -3.0051696051147992E-03
              -5.8236444951113185E-03
               1.4970992696381120E-02
              -3.5912989306569787E-03
              -1.0724361749668621E-02
              -4.5354487877492210E-03
               4.1526615245075452E-03
              -5.0001652076903276E-03
               1.5927405796516108E-03
               2.0186338551311965E-03
              -6.3509340536607771E-03
              -2.7245709731322540E-03
               7.0382759740644351E-03
               6.9230339836435411E-03
               5.4408163516311107E-03
              -6.3799268775494534E-03
               6.8444633019816492E-03
              -8.2231545854923298E-03
              -6.8347923136917682E-04
               5.5639199823549002E-03
              -1.9105267268424602E-03
               2.8424109640655870E-03
               9.1626532567386128E-03
              -1.3854114273746127E-02
               9.4934002377043848E-03
               8.4091805842864964E-03
               1.8670634623108142E-03
               1.0687228932905477E-03
              -1.8737873852937351E-02
               1.5183620232936946E-02
              -3.3912376818379959E-03
               5.2813082314867432E-03
              -1.7797104291618772E-02
              -6.4451934651491181E-03
              -3.2203739036286202E-03
              -6.3703452562365894E-04
              -3.9200683701454088E-03
              -4.4634883179397221E-03
              -2.8239806045521028E-04
              -4.2651305606314560E-03
               2.0264928069758928E-03
               2.6261353148437729E-03
               6.7405919154326574E-03
              -3.2964737991269238E-03
              -7.7090671030003713E-04
              -3.4466348295712533E-03
              -4.6374878980217464E-03
               9.0073024668222666E-03
              -1.8521348878961009E-03
               2.1378694795637608E-02
              -3.8980825993129905E-03
              -6.8590844311187220E-03
               1.1958731284111240E-03
              -2.9657034621286544E-03
               6.3699775942599804E-03
               1.4579418051466489E-02
               4.3966267435505838E-03
              -1.1124721016905179E-02
               5.7436244140230694E-03
               8.7171955646879080E-03
              -4.0786511200063989E-03
               1.1560336219949402E-02
               2.3511107831708815E-03
              -3.1600811082701120E-03
              -1.8297390767581497E-03
               2.0694243174754655E-03
              -1.4111897638889553E-03
               2.3100659039505369E-04
              -4.4139635853538339E-03
               2.3506965898253105E-04
              -1.5962420380037486E-02
              -3.2758380193967209E-03
               3.9110397282121796E-03
               2.5736922057200879E-03
               7.0881438717023629E-03
               3.6440108726810208E-03
              -6.4945982663926058E-03
               1.8558011920917678E-02
               9.3061060342008030E-04
               2.6150980541392835E-03
              -1.8412014001460773E-04
               7.3634356316317181E-03
              -1.5138260087969608E-02
               2.6297916025869897E-03
               2.5495640708367486E-03
              -3.1043790821623997E-03
               5.0005839638896342E-03
              -2.9608619937081132E-03
               1.2914646361232237E-03
               1.5796390630537507E-03
               5.4432686004823750E-03
               1.4406657879512731E-03
              -5.4832147893883743E-03
              -2.6836195625093906E-03
               2.8400425940551467E-03
               1.6988137430025512E-02
              -6.6738834301707821E-03
               3.7586816881241044E-03
               6.5398298491561669E-03
              -1.3593051300539945E-02
               6.6405971182920019E-03
              -1.9636899675547314E-03
               9.5202115268746548E-05
               4.9600568482636026E-03
              -9.3071314527738459E-03
               8.9995427369068091E-03
              -2.3617073770674964E-03
              -2.2076706076532191E-03
               6.9629813015127488E-03
              -3.5812749158592597E-03
              -1.5153658476560222E-02
               2.9674216929205504E-03
               5.5791598004691274E-04
              -8.4018228218102568E-03
               2.0051367868469342E-02
               1.6879444793029617E-03
              -1.6145249711254890E-03
              -3.1735076352719877E-03
               1.2818694384359839E-02
              -4.2678435851326310E-03
              -1.0448917480813842E-02
              -5.2585957026430024E-03
               7.7001925784013058E-03
               5.2842647457400317E-03
               2.5950270555535259E-03
              -6.3518245791011575E-03
               3.0434750482197458E-03
               2.0573263678843098E-03
              -1.4063756791948108E-02
              -1.4912194907142396E-02
               1.7080379604589931E-03
               8.2717818690177941E-03
               3.2816333876442678E-03
               4.0923877774218468E-03
              -1.5691320933336368E-03
              -2.6731825520504393E-03
              -5.9483161785471410E-03
              -9.7052731373765012E-03
               1.0198617265509063E-02
               1.1211644280500357E-02
               1.2098241622576340E-02
              -1.1237514468694438E-02
              -5.3088675643800150E-03
               7.2923248988613918E-03
               1.0234013804308844E-03
              -5.5133739607383025E-03
               1.1523444297109768E-02
              -8.0391169026693620E-04
               4.0622652674732959E-03
              -9.2261070496934133E-03
              -2.3682936347211663E-03
              -1.0347499100008682E-03
               2.0052305595473969E-03
               1.0651046555716906E-03
              -1.0746702177349846E-03
              -1.7595174945972058E-03
               4.6864326766409897E-03
              -9.8338109754237991E-03
              -1.7100949456138085E-04
               7.5235574183055015E-03
              -6.4205123448245107E-03
              -3.2288469763953860E-03
               2.2372338113581017E-03
              -3.4055361778930512E-04
              -4.4799455976317695E-03
               5.2290136964561890E-04
               3.0167117067824217E-03
               3.2790332857055653E-03
               5.5563484041131058E-03
              -3.5453395456239753E-04
              -9.3794004408502042E-04
               9.0039047500535053E-04
              -2.7403623879612309E-03
               8.2563015977725248E-03
              -2.9359865196526233E-03
              -9.9579148400090398E-03
               7.9622528262353470E-03
              -3.3630484083506805E-03
              -2.2475183072425214E-03
              -5.9054813673213597E-03
               8.3906096807190712E-04
              -1.4031303241554699E-03
              -1.5135417908803783E-03
              -7.2551926379590828E-03
              -1.9064766155512693E-02
               1.6323368380690869E-02
               1.4426341199017508E-02
               4.1283635542113195E-03
              -8.8372356503914843E-03
              -1.7855528616289662E-03
              -6.9406050878736674E-03
              -6.6420959362486721E-03
               3.1004771711100657E-03
               1.5050779244442517E-03
              -1.9681683053090881E-03
               7.0494267721535261E-03
               3.4365749488572865E-03
               9.5187457036402905E-03
               2.0298176077134618E-03
               1.4348570037373836E-02
               1.0764478327251569E-02
              -9.6847563161098858E-03
              -1.9321145986036052E-03
              -1.2364194744538228E-02
               1.0972527209782880E-02
               1.9804518282638911E-04
               2.3084164084337840E-03
              -3.8657131956710655E-03
              -1.4931151642077962E-02
              -2.0751629994834504E-02
               1.3077743436387528E-02
              -3.5724309227386157E-03
               1.7114029369473316E-02
               9.6442956794140829E-03
              -5.3869474154266926E-03
               6.4807163094945715E-03
               4.9907259135833180E-03
              -6.9126006401132724E-04
              -1.4458680819908585E-02
               3.1669094409448222E-03
               8.7187021179381125E-03
              -3.6618019013596177E-03
              -2.1953008251987928E-03
              -4.9535471628970934E-03
               4.2817222024542564E-03
              -4.1819971164054203E-04
              -2.1269427449899098E-03
               4.9093644444347887E-03
              -2.7876761823293782E-05
               2.1995717146335242E-03
               2.3616082604692537E-03
              -2.4801871077326336E-03
              -1.1217959672998109E-03
              -3.5100276042294796E-03
               8.3857202556561379E-03
               4.7886732272631131E-03
              -1.9788551804909961E-03
              -3.0614315032206200E-03
              -8.3303776642054093E-03
               1.2203412773502504E-04
               9.9138455314548377E-03
               3.1766997573669177E-03
               7.8148814419676613E-03
               4.9723114680694080E-03
               1.8125974005250702E-02
              -8.6147081184468656E-03
              -5.8512787598419486E-03
              -5.1071970152712651E-03
               4.6319906980382790E-03
              -3.9996346762587722E-03
               4.6104442759426793E-03
               6.9828345254143017E-03
               3.0793586881316818E-03
               7.4864137461433241E-03
              -1.8044197936086637E-02
               1.2695706779153935E-02
               4.8419809578270001E-03
              -1.2083434184693376E-02
              -4.9150524722252550E-03
               7.3698957551982880E-03
               8.2673368555232322E-03
               2.5978673439059807E-03
              -3.4044069810249041E-03
               1.2924740300000169E-02
              -4.3817503995844751E-03
              -4.1423800519971611E-03
               3.2053272781152314E-03
              -1.7844946210372564E-02
              -3.6478053304904541E-03
               6.0562957705629014E-03
               1.2955523116321898E-03
               3.7795992182603506E-03
              -1.7610055272012964E-02
              -1.2725744202293405E-03
               1.3542595316173854E-02
              -3.0414400075413524E-03
               4.4076121087523515E-04
               7.1100208174856828E-04
              -2.3182351152315991E-03
              -1.4812379268515192E-03
               7.2834564953018315E-03
              -6.0244313538066977E-03
               5.4146241902529920E-03
               5.2632512875596801E-03
              -1.1223827846335743E-02
              -5.1474961280297887E-03
               2.6429961254358103E-04
              -1.5626923676825626E-03
              -1.5118244925531876E-03
              -6.1636721348047683E-03
              -5.7130163357557127E-03
               1.2411881327942778E-02
               6.8135149788180549E-03
              -1.6591647372399842E-03
              -2.3333595591873311E-03
               3.9275912378051189E-04
               7.0330567575897229E-03
              -1.0492235434130527E-02
               7.2523473695188887E-03
              -2.3948256353192052E-04
               5.8888352257166930E-03
               1.2687959052093466E-03
              -4.9373124753811642E-03
              -6.7008975122709296E-03
              -2.4963390320355346E-03
              -4.9156519940917829E-03
               2.4885965870514227E-03
              -8.5022182084768319E-04
              -3.1499738874092471E-03
              -3.6713275133126557E-03
               1.2522180079456666E-02
              -8.8304669782433419E-04
              -2.0873628692317028E-03
               2.9871063818899257E-03
              -1.1035671759279198E-03
               5.7311512687838219E-03
              -5.6341466987724033E-03
              -7.3380073199195445E-03
               3.4782194077245913E-03
              -4.3640340382120942E-03
               1.1901753422195096E-03
               1.0168826051432922E-03
              -5.1068958064061322E-03
              -4.6494436497789551E-03
              -7.5353454387498660E-03
              -3.5553938132627783E-03
               2.1611753292108331E-03
               1.2038600502501313E-02
               1.4654759181718151E-02
               3.0002976423381118E-03
              -5.4606617950903099E-03
         &END THERMOSTAT_ENERGY
         &RNG_INIT
Wiener process for Thermostat # 1        1 F T T   3.7280401166127353E-01        2396824340.0        1285798124.0        1970812289.0        4262378425.0        2500496477.0        3105761546.0             12345.0             12345.0             12345.0             12345.0             12345.0             12345.0             12345.0             12345.0             12345.0             12345.0             12345.0             12345.0
Wiener process for Thermostat # 2        1 F T T  -2.8031459711754392E-01        1517340215.0         764337745.0        1777988352.0        1272471177.0        3093987526.0        2495380513.0        3692455944.0        1366884236.0        2968912127.0         335948734.0        4161675175.0         475798818.0        3692455944.0        1366884236.0        2968912127.0         335948734.0        4161675175.0         475798818.0
Wiener process for Thermostat # 3        1 F T T   7.0414863813957229E-01        1874984675.0        3540139467.0        3102430019.0        1608426380.0         643336117.0        1230365417.0        1015873554.0        1310354410.0        2249465273.0         994084013.0        2912484720.0        3876682925.0        1015873554.0        1310354410.0        2249465273.0         994084013.0        2912484720.0        3876682925.0
Wiener process for Thermostat # 4        1 F T T   2.2606224243119818E-01        3416187057.0        1637601412.0         393440280.0        2948182120.0        3407482107.0        2343296956.0        2338701263.0        1119171942.0        2570676563.0         317077452.0        3194180850.0         618832124.0        2338701263.0        1119171942.0        2570676563.0         317077452.0        3194180850.0         618832124.0
Wiener process for Thermostat # 5        1 F T T  -1.0267294306732384E+00         315072143.0        4137263975.0        4196656129.0        1282237791.0        3639735469.0        1937530485.0        1597262096.0        3906379055.0        3312112953.0        1016013135.0        4099474108.0         275305423.0        1597262096.0        3906379055.0        3312112953.0        1016013135.0        4099474108.0         275305423.0
Wiener process for Thermostat # 6        1 F T T   9.2624835653208748E-01        3222219212.0        3105331301.0        2094058484.0        2511776071.0        3719186732.0        3505559269.0          97147054.0        3131372450.0         829345164.0        3691032523.0        3006063034.0        4259826321.0          97147054.0        3131372450.0         829345164.0        3691032523.0        3006063034.0        4259826321.0
Wiener process for Thermostat # 7        1 F T T  -4.6721006089689310E-01        2921304001.0        3534845789.0         764942181.0        2980414860.0        2807768180.0         274774080.0         796079799.0        2105258207.0         955365076.0        2923159030.0        4116632677.0        3067683584.0         796079799.0        2105258207.0         955365076.0        2923159030.0        4116632677.0        3067683584.0
Wiener process for Thermostat # 8        1 F T T   4.8809173354813140E-01        3327178806.0        3682317356.0        2663069382.0         319044460.0        3975670735.0         562702070.0        3281794178.0        2616230133.0        1457051261.0        2762791137.0        2480527362.0        2282316169.0        3281794178.0        2616230133.0        1457051261.0        2762791137.0        2480527362.0        2282316169.0
Wiener process for Thermostat # 9        1 F T T  -8.1805399140306756E-01         433221438.0         349071730.0        2033385903.0        2639944804.0        3988392127.0        3801627598.0        3777646647.0        1837464056.0        4204654757.0         664239048.0        4190510072.0        2959195122.0        3777646647.0        1837464056.0        4204654757.0         664239048.0        4190510072.0        2959195122.0
Wiener process for Thermostat # 10       1 F T T  -2.7062828385550008E-01        2290601073.0        1666814614.0        3289919364.0        2930088785.0        1500929831.0        1860303943.0        4215590817.0        3862461878.0        1087200967.0        1544910132.0         936383720.0        1611370123.0        4215590817.0        3862461878.0        1087200967.0        1544910132.0         936383720.0        1611370123.0
Wiener process for Thermostat # 11       1 F T T   6.8652417552969780E-01        2151060734.0         580174056.0        1748210725.0         399674445.0        1879492130.0        2741776977.0        1683636369.0         362165168.0         814316280.0         869382050.0         980203903.0        2062101717.0        1683636369.0         362165168.0         814316280.0         869382050.0         980203903.0        2062101717.0
Wiener process for Thermostat # 12       1 F T T   1.2985463821691814E+00        3478492904.0        1830493925.0          17364685.0        2058676739.0        2676153401.0        4087350495.0         272317999.0         166758548.0         310112982.0         201045826.0        1680231254.0         118290799.0         272317999.0         166758548.0         310112982.0         201045826.0        1680231254.0         118290799.0
Wiener process for Thermostat # 13       1 F T T   2.0061703114922356E+00        2097018817.0        1300727704.0         367347443.0         582130443.0        2824054692.0        3111690587.0        2245755202.0        1652682525.0        2865544364.0         721509566.0         209733568.0         592362218.0        2245755202.0        1652682525.0        2865544364.0         721509566.0         209733568.0         592362218.0