 # Version information for this restart file 
 # current date 2024-11-21 19:29:04.659
 # current working dir /scratch/work/courses/CHEM-GA-2671-2024fa/students/zz10074/comp-lab-class-2024/Week12-IntroAIMD/Runs_Proton
 # Program compiled at                              Sat Dec 12 18:27:15 EST 2020
 # Program compiled on                                         cs001.nyu.cluster
 # Program compiled for                                                nyu-intel
 # Source code revision number                                       git:8c64c6e
 &GLOBAL
   PRINT_LEVEL  LOW
   PROJECT_NAME proton_aimd_1ns_every0.5fs
   RUN_TYPE  MD
   WALLTIME 21600
 &END GLOBAL
 &MOTION
   &GEO_OPT
     OPTIMIZER  BFGS
     MAX_ITER  100
     MAX_DR     3.0000000000000001E-03
     &BFGS
     &END BFGS
   &END GEO_OPT
   &MD
     ENSEMBLE  NVT
     STEPS  2000
     TIMESTEP     4.9999999999999994E-01
     STEP_START_VAL  1999
     TIME_START_VAL     9.9949999999998238E+02
     ECONS_START_VAL    -1.1027999833048329E+03
     TEMPERATURE     3.0000000000000000E+02
     &THERMOSTAT
       TYPE  GLE
       REGION  MASSIVE
       &GLE
         NDIM  5
         A_SCALE     1.0000000000000000E+00
         A_LIST     1.8595758612559999E+02    2.7263853498399998E-01    1.1526100454610001E+01   -3.6414578262600003E+01 \
             2.3173375816020001E+02
         A_LIST    -2.7809524712060002E-01    8.5951591808710006E-05    7.2189048017650004E-01   -1.9844539343859999E-01 \
             4.2409257583420001E-01
         A_LIST    -1.4825808131210000E+01   -7.2189048017650004E-01    1.3590902121280000E+00    5.1498896280349999E+00 \
            -9.9949268450990001E+00
         A_LIST    -1.0372189126880000E+01    1.9844539343859999E-01   -5.1498896280349999E+00    2.6661910891169999E+01 \
             1.1507715495310000E+01
         A_LIST     2.1801346360420001E+02   -4.2409257583420001E-01    9.9949268450990001E+00   -1.1507715495310000E+01 \
             3.0958394565589998E+02
         &THERMOSTAT_ENERGY
               7.5492739545316551E-04
               4.0323206826646755E-03
              -1.0446104063385983E-03
               1.9673426853061078E-03
              -1.0697275864356830E-02
              -8.5430707288626506E-04
              -7.0847748572377247E-03
              -5.9921376788146579E-04
               1.0907542336547098E-02
               2.4212395568167745E-03
               1.1068020871583850E-02
              -1.2974675983974274E-03
              -7.7425512354208515E-03
               1.2652050347535782E-03
               2.6768611947747419E-03
              -9.4492242298544436E-03
               8.9616769032026689E-03
              -7.9486152256659989E-03
              -5.0676491126017749E-04
               4.6294489737872500E-03
               7.3776860657395131E-04
               1.3069144629804411E-02
              -5.4047039419032380E-03
              -3.6571919619974866E-03
              -3.0848276811067487E-03
              -1.0148945524995371E-02
              -1.7925084781535939E-03
              -5.2248392008466332E-04
               5.9507325014553590E-04
               4.8340219146937426E-03
              -6.1431936064664586E-03
              -2.1620826963254566E-03
               8.4184226602634030E-03
              -3.5787200424703784E-03
              -1.9678105408858109E-03
               8.4287262344281307E-03
               3.2896406299266646E-03
              -6.5923072090228385E-03
               1.9806742226851403E-04
               2.6553622027401013E-03
               1.0199503096869303E-02
              -1.4012832666280393E-02
               5.0231169176266676E-03
               7.2758861965555519E-03
              -5.4075275277202649E-04
               3.8094051331397957E-03
              -7.5416683367946075E-03
              -3.5166288600271042E-04
               6.8788520161812139E-03
               4.4850456970997356E-03
              -1.3801841569446060E-03
               3.4853355698430946E-03
              -1.0810723674582166E-02
              -8.2727133493385816E-03
              -8.9635723812893486E-03
               6.8311304332960019E-03
               7.6102463497789157E-04
              -1.7578584152880255E-03
               4.8214177711828569E-03
               5.5471813693783057E-03
              -1.0480733840077415E-03
              -3.0959156580307725E-03
               1.6111709752285815E-02
              -2.4406963258994290E-03
               3.9683258125161073E-03
               4.7303544067453700E-03
              -4.3834451339285685E-03
               4.9193114438783039E-03
               5.3869434753888289E-03
              -3.4754119607268721E-03
              -1.2277894804503402E-02
              -5.0167711470095839E-03
              -7.7577913284551290E-04
               1.8761922713618621E-03
              -5.6271993692585823E-03
              -4.5315550560454968E-03
               8.5313270347843265E-03
              -9.3362736467251690E-03
               9.7507031020943151E-03
              -1.1294492551035022E-03
               4.5917080923941677E-03
              -4.9060634605284552E-03
               3.8493356285732499E-04
              -2.4813541428842683E-04
               1.3475558934019142E-02
              -4.9509320689211031E-03
               5.1855934630406770E-04
               2.7500185113148333E-03
              -2.0866947375952069E-04
              -5.5935619899372280E-03
               2.1041597204458822E-03
              -1.3101650861650114E-02
               4.5566492045596941E-03
              -4.7536898615254631E-03
              -3.1552653260867813E-03
               9.5140055750523398E-03
               1.0709105271847701E-02
              -4.8624873654715562E-05
               6.3379078651482337E-03
               4.7989670542210212E-03
              -5.4379785008715122E-03
              -1.7455680546512862E-03
               8.4714458448431739E-03
              -1.3877261150463725E-03
               4.0013900435698548E-03
               1.0207375985587963E-02
               7.0683971922845248E-03
              -4.4259170065735062E-03
               5.8091857121499463E-03
               1.3306992289179552E-04
               2.3606707116672677E-03
               4.0582785320909835E-03
               1.8013936869027210E-03
               1.1613120776637858E-02
               5.6687889286257225E-03
              -4.3475256433907301E-03
              -4.4973806008005894E-03
               8.0929372271660166E-03
              -4.1996401349194135E-03
              -6.2627998105615895E-03
              -2.1204055686205809E-03
               2.9245518109508807E-03
               6.3582676963973616E-03
               4.2275061448196916E-03
              -9.0436737585625950E-03
              -3.0877748530408942E-03
               3.7448018676631677E-03
              -4.8828085120337789E-03
               6.4592972747259799E-03
              -4.7873824952964451E-03
               2.7907504157983027E-03
               1.2149987101059447E-02
              -5.0304128143580816E-03
               2.5054762701501930E-03
              -4.8556189379519868E-03
               3.2774847542863961E-03
               1.3406383959664863E-03
              -8.0930711073146453E-03
               9.9961784844189460E-04
              -2.9290515313709271E-03
               6.4903703540807938E-03
               7.0758038160655175E-03
               4.2024426809158938E-03
              -5.8760646580914037E-03
              -6.1826595999569635E-03
              -1.5729375304424163E-03
               1.1139305294413451E-02
               3.1141159557636468E-03
              -2.2994120181936023E-03
               6.6472657655625737E-03
              -1.5374172252473244E-02
               7.0672156502846559E-03
              -1.4232812991776225E-03
              -1.2381404394108833E-03
               6.5067267669763418E-03
               2.4249585098041378E-03
               1.3690466394689657E-03
              -4.0541715778943353E-03
              -8.5881693856142763E-03
               6.7058000653427248E-03
               3.4222278388843490E-03
              -3.7130950047760069E-03
              -4.6330270094391375E-03
               2.0753364619590176E-03
               1.3615250461643255E-02
               6.4190885256876617E-03
               4.7432712815573602E-03
              -1.8231379590814244E-02
              -6.5061276042618324E-04
              -1.3600605942066404E-04
              -4.1498836218162348E-03
              -1.3867713378609284E-03
               1.3219615253314359E-03
              -4.7298514870846489E-03
              -6.6736544421620043E-03
              -2.6313150482504210E-03
               7.9506692972379500E-03
               4.6651333596608099E-03
              -4.0707084796037275E-03
               3.4943590310646581E-03
               1.2762622162238741E-03
               1.6902184973693706E-02
               3.1122329179575629E-02
              -6.9023509897500621E-03
              -3.6957932036747873E-04
              -1.3598176730530021E-03
               9.9830173540733803E-03
              -5.7582186120277122E-04
              -1.0277496274546636E-02
              -9.0245593075193834E-04
              -3.3703961300224254E-03
               5.0393450147337405E-04
               4.7567824298092032E-03
              -5.3059716719022353E-04
               9.6740615270009354E-04
               1.0176869390205472E-02
              -3.9428939776852022E-03
              -2.3630605639163469E-03
              -1.2038275173623230E-02
               2.1243157105721297E-03
               4.2796762433606273E-03
               5.5909584728140492E-03
               2.6645472025912274E-03
               6.7595270004294546E-03
              -8.2287123181074995E-03
              -1.0870059303568148E-02
               1.0603588564157102E-02
               6.1334519578149244E-03
              -9.0181601520460241E-03
               6.1574728898548424E-03
              -2.0518893874170354E-03
               2.4085970763718613E-04
               1.6966501556432627E-03
               9.3332193925076048E-03
              -1.3826903058367756E-03
               1.9713141640979449E-03
              -7.0623140726178623E-03
               8.5391908591598009E-03
              -4.3024861597823578E-03
               3.7962081738668633E-03
               1.1339548997043383E-03
              -2.2143529001199059E-03
              -1.5119947513007735E-02
               1.2043998466681329E-02
               1.0871969940116147E-02
              -5.2726874246713665E-03
              -6.0400601136597169E-03
               4.4811760777312669E-04
               2.7665632509264403E-03
               2.3372640971497235E-03
              -6.6573478606307170E-03
               3.5782092707659151E-03
               1.0786081813634643E-02
               1.2192772364809043E-03
              -2.8765512801713616E-03
              -2.6543653552743747E-03
              -5.3744307938699632E-03
               1.2842321408833342E-03
              -3.0854789925547541E-03
              -2.3036279265488380E-03
               7.9144850783784415E-03
               8.6912928659310593E-03
              -1.3273479194217778E-03
               1.6260450590132127E-03
              -4.3495530282458960E-03
              -3.2116121845207537E-04
               1.8790042777144973E-04
              -2.0018168710928463E-04
              -3.0380797194166837E-03
              -5.5555127984518171E-03
               1.4949969806310895E-02
              -3.7857403474787560E-03
              -1.0597335511071016E-02
              -4.7336194384936386E-03
               5.1470287893501934E-03
              -5.0149945954967700E-03
               1.3414733506890285E-03
               1.9073150920112360E-03
              -6.3010453030168598E-03
              -3.2929586388836139E-03
               6.9457345437776326E-03
               7.4281804051874465E-03
               6.2227354655956888E-03
              -6.6484628620943620E-03
               6.6005021547492120E-03
              -7.5913863128199898E-03
              -3.3265245678756812E-04
               5.9801069332438873E-03
              -2.1161850285824511E-03
               3.4749542566887160E-03
               9.0893551131941142E-03
              -1.3526768041157178E-02
               9.4120197839672910E-03
               8.6231309321826936E-03
               2.4113445949587599E-03
               8.8905262127315519E-04
              -1.8618390384233068E-02
               1.5127096548452162E-02
              -3.9215900561728545E-03
               4.8363803611963466E-03
              -1.8061763991093247E-02
              -6.5580515231996785E-03
              -3.3634869881854768E-03
              -3.1114491096121956E-04
              -3.9835219492062660E-03
              -4.4550843265453999E-03
              -1.5266845846305188E-03
              -4.3332613471696660E-03
               2.0232660898962464E-03
               2.6268037251100666E-03
               8.4402505372691908E-03
              -3.3843781859991822E-03
              -7.2101735402596047E-04
              -2.2502848017266590E-03
              -4.5035791163347150E-03
               8.5974622114751258E-03
              -1.8656044809258095E-03
               2.0903778313841628E-02
              -4.0256070332792514E-03
              -6.7467421977930242E-03
               1.5670852933693088E-03
              -2.8311640646183065E-03
               6.4119284694780267E-03
               1.4515228538536840E-02
               3.6333476530820870E-03
              -1.1420121579166739E-02
               6.1486603386822665E-03
               8.7030040206949964E-03
              -3.6765067952874175E-03
               1.1305871170854787E-02
               2.1776338680457264E-03
              -3.2683581541183655E-03
              -1.0210722618992217E-03
               1.9950154680722721E-03
              -2.1016909418860455E-03
              -2.5465364711636839E-04
              -4.1635741426837075E-03
              -4.3368720211020730E-04
              -1.5021789110291726E-02
              -3.6638327632233748E-03
               3.9312192533283285E-03
               1.0923140268244949E-03
               6.4728870345591343E-03
               3.5000360711885566E-03
              -7.3029171181685790E-03
               1.8009895443558466E-02
               1.2807220797223617E-03
               2.6396355635252828E-03
               2.3121121668743085E-04
               7.6601933817460862E-03
              -1.3239707461001829E-02
               3.6708545415229470E-03
               2.5833814461251750E-03
              -3.1962884211293357E-03
               5.0604949077102503E-03
              -2.9977697942453686E-03
               1.2110054712149777E-03
               1.5952595326128270E-03
               5.7552679910800363E-03
               1.0638074884978693E-03
              -6.0114644314860962E-03
              -3.2425386558289047E-03
               2.9908866201088001E-03
               1.7076152652160968E-02
              -6.6556197163825616E-03
               3.8723810329096631E-03
               7.2161248012117254E-03
              -1.3430224156047488E-02
               7.0045732363077503E-03
              -1.5734357511327395E-03
              -1.3226715717415773E-04
               4.9276009669840309E-03
              -9.5465464859967007E-03
               9.8264149685506029E-03
              -2.1785536360699278E-03
              -2.3136305678863977E-03
               6.7008917311773006E-03
              -3.5904027603197827E-03
              -1.5212664968030023E-02
               3.3331050562663139E-03
               5.0997920524373447E-04
              -7.7064566181650621E-03
               2.0220037154294272E-02
               1.9392505083909396E-03
              -1.5958970273706595E-03
              -3.5169254475770212E-03
               1.2867645432963809E-02
              -4.1216521784540406E-03
              -9.9589850586300384E-03
              -5.0805218989473525E-03
               7.5895982033581414E-03
               4.9792872886459966E-03
               2.9836143385648275E-03
              -6.8786582583048412E-03
               3.0642973692418117E-03
               3.7687632295063706E-03
              -1.4041781397125891E-02
              -1.4898710845967099E-02
               1.7937557842076721E-03
               8.3283529771796972E-03
               3.0490972961264291E-03
               3.7617961332172102E-03
              -1.9367625030323457E-03
              -2.4944935816099889E-03
              -6.2668107199654495E-03
              -1.0313447035253793E-02
               1.0646841244032730E-02
               1.1251869230038227E-02
               1.1947900892075010E-02
              -1.1415820004953985E-02
              -5.2137399960571528E-03
               7.3747220141465262E-03
               8.0153260747324769E-04
              -5.4597376825788772E-03
               1.1639665789638527E-02
              -8.8685590489285529E-04
               4.6134161931893954E-03
              -9.3144762504600836E-03
              -8.2601439153127975E-04
              -9.6620153791783221E-04
               2.0556692123874557E-03
               1.2032960649270455E-03
              -1.2191122549528055E-03
              -1.7212355702039411E-03
               4.5898009847061671E-03
              -9.7856276831516480E-03
              -3.7668118220183708E-04
               7.3141601851806530E-03
              -6.5014398032330013E-03
              -3.1996938545006035E-03
               2.2825051426844717E-03
               3.3836218515605979E-04
              -4.2783090231674273E-03
               1.1678030201400643E-03
               3.4936501442473763E-03
               3.7946806415803565E-03
               4.9840715078214633E-03
              -3.2296055877766787E-04
              -9.7983019830272331E-04
               1.0105131791638762E-03
              -2.3896830111325702E-03
               8.0946461336402903E-03
              -2.8945752060499292E-03
              -9.6937836252372900E-03
               9.0165351954045476E-03
              -3.7582037849982442E-03
              -2.5619860339031169E-03
              -6.0218687071220333E-03
              -1.1964173972405898E-03
              -4.0421332350548689E-04
              -1.3845247285878513E-03
              -7.2051456452423774E-03
              -1.9011834868583228E-02
               1.6257042373697614E-02
               1.4340738726900722E-02
               5.4903136883780275E-03
              -8.5761368501059559E-03
              -1.1069031408746269E-03
              -6.9865524908177450E-03
              -6.5523580295290141E-03
               4.4291592528091063E-03
               6.8387200373262041E-04
              -1.6286154178434364E-03
               8.0543068172295746E-03
               3.8523581031137755E-03
               9.5095310188531134E-03
               1.3212379656507519E-03
               1.4332885068217290E-02
               1.0458621676786243E-02
              -9.7602825548645730E-03
              -2.1057726523427698E-03
              -1.2326353120460537E-02
               1.0806180942771288E-02
               6.0550401493669336E-04
               1.6248040638676617E-03
              -3.9408727141747304E-03
              -1.4922978778561049E-02
              -2.0531653967312411E-02
               1.2923524551947852E-02
              -3.7990347344604410E-03
               1.7549756252827519E-02
               1.0055687347943234E-02
              -5.4537707584069849E-03
               7.2991609818354765E-03
               4.5421703475180463E-03
               2.1258401195589256E-04
              -1.4572524878437538E-02
               3.4076744959193445E-03
               8.6916284075730169E-03
              -3.4901133561179094E-03
              -1.8030010447622404E-03
              -4.8839546213087408E-03
               3.8867584140481635E-03
              -6.4219684380232786E-04
              -1.9649066901211098E-03
               5.5870875020536037E-03
              -3.7897871442347130E-05
               2.1779643869885212E-03
               2.6159445253208769E-03
              -2.3322569204535463E-03
              -8.6447677418504689E-04
              -2.8340515056367011E-03
               6.9171254543481178E-03
               4.8398744484449948E-03
              -3.7385512915055034E-03
              -3.0271307892209905E-03
              -8.3173347112856823E-03
               4.6819210852887310E-04
               8.6335877055360201E-03
               3.2025190245697551E-03
               7.6569552847135115E-03
               5.1153803550518908E-03
               1.8073414134962194E-02
              -8.6064524663984031E-03
              -5.8315102766017439E-03
              -5.0395254796701599E-03
               5.4434366973174020E-03
              -3.1958791394149956E-03
               4.6948233006348147E-03
               7.0139031649426586E-03
               4.9502345413110060E-03
               7.5599653416943084E-03
              -1.7728685878574155E-02
               1.2821510244806943E-02
               4.8103421242855571E-03
              -1.2001154829606179E-02
              -4.6358933775515580E-03
               7.2915635059333534E-03
               8.3355751813645410E-03
               2.4536584448647874E-03
              -3.2398325462606107E-03
               1.3492280085874931E-02
              -4.6027008972226342E-03
              -4.1024899458326700E-03
               3.1457979784580022E-03
              -1.7927624098626516E-02
              -4.0442052691643492E-03
               6.5977652185348163E-03
               1.2002500611208056E-03
               3.4437736446735904E-03
              -1.7564155072682830E-02
              -1.1732339478211502E-03
               1.3925536305930380E-02
              -3.0435344425928860E-03
               5.5685475303831646E-05
               4.1766053291362738E-04
              -2.2416426295981755E-03
              -2.2164565711300811E-03
               8.0432207759038848E-03
              -5.6229988177620887E-03
               5.7746181489141558E-03
               5.5049847797643409E-03
              -1.1420768647443867E-02
              -5.0431538056744125E-03
               3.0367793055725075E-04
              -1.5323568933351725E-03
              -1.2556750849546368E-03
              -6.3435030206391001E-03
              -5.7975626821429897E-03
               1.1271878391626487E-02
               6.9234670548462491E-03
              -1.6012952474859790E-03
              -2.2841057987101165E-03
               2.9592818612934869E-04
               6.7521026860931140E-03
              -1.0368526604851498E-02
               6.4445410488998978E-03
               3.5040192719248931E-04
               6.3379120468640042E-03
               1.3025086723146206E-03
              -6.4297773276733522E-03
              -7.2214249193105744E-03
              -2.5457284061494610E-03
              -4.3312897588469370E-03
               2.5275726663988702E-03
              -9.1500507066842791E-04
              -3.1828271999956919E-03
              -3.3554988510840723E-03
               1.2528868202711339E-02
              -9.8056055857670974E-04
              -2.1967040621726410E-03
               3.0774609311975940E-03
              -1.1871700386429150E-03
               5.7762043548339314E-03
              -6.2734964556016778E-03
              -7.2397869232873101E-03
               3.1695381496684070E-03
              -4.1339185861979481E-03
               1.1445538557971421E-03
               3.2674299302035094E-05
              -5.2753245993417243E-03
              -4.9357753866625638E-03
              -6.6069436988140020E-03
              -3.4483985405868497E-03
               2.4661530421107624E-03
               1.2552251663285018E-02
               1.4640877304725283E-02
               2.8139221400685630E-03
              -5.5931824248238353E-03
         &END THERMOSTAT_ENERGY
         &RNG_INIT
Wiener process for Thermostat # 1        1 F T T  -1.3877964172148927E+00        3819968671.0        1923139303.0        2505174482.0        1129753110.0        1102497896.0        2318485114.0             12345.0             12345.0             12345.0             12345.0             12345.0             12345.0             12345.0             12345.0             12345.0             12345.0             12345.0             12345.0
Wiener process for Thermostat # 2        1 F T T   5.9690975612399577E-01        1863048650.0        1167059563.0        4156553466.0        2659491592.0        2500563110.0        2967422577.0        3692455944.0        1366884236.0        2968912127.0         335948734.0        4161675175.0         475798818.0        3692455944.0        1366884236.0        2968912127.0         335948734.0        4161675175.0         475798818.0
Wiener process for Thermostat # 3        1 F T T  -1.9577134425325560E-01        2029679022.0        1992813296.0        1475024831.0        3744841000.0        4231717232.0        1872789393.0        1015873554.0        1310354410.0        2249465273.0         994084013.0        2912484720.0        3876682925.0        1015873554.0        1310354410.0        2249465273.0         994084013.0        2912484720.0        3876682925.0
Wiener process for Thermostat # 4        1 F T T  -5.5423907268054418E-01         972191078.0        3239779000.0        2283144792.0        4029872124.0        2868550739.0         388907277.0        2338701263.0        1119171942.0        2570676563.0         317077452.0        3194180850.0         618832124.0        2338701263.0        1119171942.0        2570676563.0         317077452.0        3194180850.0         618832124.0
Wiener process for Thermostat # 5        1 F T T  -3.6874052824979625E-01         246061856.0        2033992607.0        4208640487.0        3425480013.0        1713937449.0        3033523858.0        1597262096.0        3906379055.0        3312112953.0        1016013135.0        4099474108.0         275305423.0        1597262096.0        3906379055.0        3312112953.0        1016013135.0        4099474108.0         275305423.0
Wiener process for Thermostat # 6        1 F T T   5.7875332706651861E-01        4268450248.0        1240555256.0        2123119467.0         299173953.0        2368881629.0        2698044585.0          97147054.0        3131372450.0         829345164.0        3691032523.0        3006063034.0        4259826321.0          97147054.0        3131372450.0         829345164.0        3691032523.0        3006063034.0        4259826321.0
Wiener process for Thermostat # 7        1 F T T  -1.8983145396195047E+00        4260312323.0         705196258.0         937296972.0        1373994383.0        3179698350.0        3757299263.0         796079799.0        2105258207.0         955365076.0        2923159030.0        4116632677.0        3067683584.0         796079799.0        2105258207.0         955365076.0        2923159030.0        4116632677.0        3067683584.0
Wiener process for Thermostat # 8        1 F T T  -3.3116685260855833E-01        2351531572.0        3477839446.0        1021048571.0        1975906828.0        1893564842.0         777663015.0        3281794178.0        2616230133.0        1457051261.0        2762791137.0        2480527362.0        2282316169.0        3281794178.0        2616230133.0        1457051261.0        2762791137.0        2480527362.0        2282316169.0
Wiener process for Thermostat # 9        1 F T T   1.4386427466100791E+00        3265425123.0        2999969280.0        3048908474.0        1047403656.0         134736569.0        4209884843.0        3777646647.0        1837464056.0        4204654757.0         664239048.0        4190510072.0        2959195122.0        3777646647.0        1837464056.0        4204654757.0         664239048.0        4190510072.0        2959195122.0
Wiener process for Thermostat # 10       1 F T T  -2.3947144259907721E-01        2825100143.0        2025717467.0        3827127036.0        1422979577.0        1026966836.0        1481957392.0        4215590817.0        3862461878.0        1087200967.0        1544910132.0         936383720.0        1611370123.0        4215590817.0        3862461878.0        1087200967.0        1544910132.0         936383720.0        1611370123.0
Wiener process for Thermostat # 11       1 F T T   2.8146058156813852E-01        3161233422.0        2404453347.0        1673723662.0         906337025.0          73303549.0        1016746719.0        1683636369.0         362165168.0         814316280.0         869382050.0         980203903.0        2062101717.0        1683636369.0         362165168.0         814316280.0         869382050.0         980203903.0        2062101717.0
Wiener process for Thermostat # 12       1 F T T  -6.6211933450441895E-01         208754144.0        1983222026.0        1378772639.0         460703296.0         651350573.0        3898252829.0         272317999.0         166758548.0         310112982.0         201045826.0        1680231254.0         118290799.0         272317999.0         166758548.0         310112982.0         201045826.0        1680231254.0         118290799.0
Wiener process for Thermostat # 13       1 F T T   2.2418582236869027E-02         545702192.0         878923556.0         464381839.0        1267067492.0        3004786620.0        2258194530.0        2245755202.0        1652682525.0        2865544364.0         721509566.0         209733568.0         592362218.0        2245755202.0        1652682525.0        2865544364.0         721509566.0         209733568.0         592362218.0