 # Version information for this restart file 
 # current date 2024-11-21 18:24:42.632
 # current working dir /scratch/work/courses/CHEM-GA-2671-2024fa/students/zz10074/comp-lab-class-2024/Week12-IntroAIMD/Runs_Proton
 # Program compiled at                              Sat Dec 12 18:27:15 EST 2020
 # Program compiled on                                         cs001.nyu.cluster
 # Program compiled for                                                nyu-intel
 # Source code revision number                                       git:8c64c6e
 &GLOBAL
   PRINT_LEVEL  LOW
   PROJECT_NAME proton_aimd_1ns_every0.5fs
   RUN_TYPE  MD
   WALLTIME 21600
 &END GLOBAL
 &MOTION
   &GEO_OPT
     OPTIMIZER  BFGS
     MAX_ITER  100
     MAX_DR     3.0000000000000001E-03
     &BFGS
     &END BFGS
   &END GEO_OPT
   &MD
     ENSEMBLE  NVT
     STEPS  2000
     TIMESTEP     4.9999999999999994E-01
     STEP_START_VAL  1500
     TIME_START_VAL     7.5000000000000762E+02
     ECONS_START_VAL    -1.1027999833048329E+03
     TEMPERATURE     3.0000000000000000E+02
     &THERMOSTAT
       TYPE  GLE
       REGION  MASSIVE
       &GLE
         NDIM  5
         A_SCALE     1.0000000000000000E+00
         A_LIST     1.8595758612559999E+02    2.7263853498399998E-01    1.1526100454610001E+01   -3.6414578262600003E+01 \
             2.3173375816020001E+02
         A_LIST    -2.7809524712060002E-01    8.5951591808710006E-05    7.2189048017650004E-01   -1.9844539343859999E-01 \
             4.2409257583420001E-01
         A_LIST    -1.4825808131210000E+01   -7.2189048017650004E-01    1.3590902121280000E+00    5.1498896280349999E+00 \
            -9.9949268450990001E+00
         A_LIST    -1.0372189126880000E+01    1.9844539343859999E-01   -5.1498896280349999E+00    2.6661910891169999E+01 \
             1.1507715495310000E+01
         A_LIST     2.1801346360420001E+02   -4.2409257583420001E-01    9.9949268450990001E+00   -1.1507715495310000E+01 \
             3.0958394565589998E+02
         &THERMOSTAT_ENERGY
               8.8210214463766594E-05
              -4.0777098472540967E-04
               1.7383439897238708E-03
               4.8425417371241912E-03
              -1.3383868806955967E-02
              -1.2831277064140785E-03
              -5.1404558413381280E-03
              -2.0068396016616517E-04
               1.0790411360501946E-02
               2.8964556236606748E-03
               9.4108277586380396E-03
              -6.1238989545423575E-03
               3.1444069635529659E-04
              -7.3229870490932837E-03
               6.2235971688268171E-03
              -2.5125003955893468E-03
               4.3095850678728309E-03
              -7.8354206600345418E-03
               2.7761263789283204E-03
               2.8994517579076489E-03
               1.5085038715748800E-03
               4.2016009127205291E-03
              -3.6384117025953879E-03
               2.5804738389827398E-03
              -5.0951464171879882E-03
              -7.6332494778523158E-03
              -1.7793253310089876E-03
               1.5349743637787896E-03
               2.9711103690321160E-03
               3.8549447105393694E-03
              -1.2254403541086584E-02
               7.0822241022836527E-04
               1.0469022123353206E-02
               1.1790098998225890E-03
              -7.7668134858501162E-03
               1.4519796018003251E-02
              -1.6944382311311534E-03
              -3.1579871236638900E-03
               1.3757830952132709E-03
               2.8470804975005190E-04
               4.5914054385723648E-03
              -4.9121417300696437E-03
               6.6650037190794219E-03
               3.9243195981889982E-03
              -3.0825942758498596E-03
               1.1201651235651314E-03
              -3.5476031207678322E-03
              -3.7969640954424943E-04
               3.6121350424183777E-03
               6.7778741694928361E-03
              -1.0206897334921693E-03
              -9.4855889992190420E-04
              -7.5382754948064923E-03
              -4.2581475576697553E-03
              -7.6679831645715272E-03
               3.8250143718135524E-03
               1.1064076523755167E-03
               1.9522276427637836E-03
               1.6491720654578023E-03
               1.7523674793344453E-03
              -5.2903007984034228E-03
              -4.3031087488760124E-03
               1.6431319327759149E-02
              -7.5037341939245569E-04
               5.3356101278607100E-03
               6.4021165768042339E-03
              -7.5972165281803898E-04
               5.7188152694996851E-03
               2.9261059654796398E-03
              -1.3509114753505057E-03
              -2.0521485028237585E-03
              -7.1555220083442889E-03
               2.5208939041477044E-04
              -5.5019619541232009E-04
              -3.9934895217438897E-03
              -5.4138296476859528E-04
               3.8655062725902866E-03
              -4.7108174555838553E-03
               9.4496293275278427E-03
               1.5708466605957608E-04
               5.2853433405938349E-03
              -2.2379377084428753E-03
               3.2621603356171812E-04
               9.6760142578324081E-04
               1.1300652556812511E-02
               2.4793616722068243E-04
              -3.4396621291725438E-03
               3.5647748163861155E-03
               5.0459808347301811E-03
              -4.1250049238787381E-03
               5.0074447886006776E-03
              -9.8086161497136191E-03
               2.3961961885865879E-03
              -1.8080173109203603E-03
              -2.1477783221729939E-03
               9.6491891007886282E-03
               4.1626331784786440E-03
               3.3364204749713870E-04
               5.5160534525986078E-03
               6.1499323549877409E-03
              -5.4568604699800176E-03
              -1.5757846495083566E-03
               5.1145106494192259E-03
               3.7998722343683465E-03
              -2.3998480252731148E-03
               8.9128457369191151E-03
               7.5333343207570893E-03
              -6.0156227502866184E-03
               5.8460814431410355E-03
               3.0399044104636214E-03
              -8.7863799519578649E-04
              -6.7626148901574739E-03
               1.0051615556855723E-02
               9.2425713849079889E-03
               1.7238439134112233E-03
              -1.5131836134123253E-03
               1.6316687211146066E-03
               7.0087851946093746E-03
              -2.5683593236445232E-03
              -5.5734065870281487E-03
              -4.0540571486175087E-03
               3.6660255524707049E-03
               3.2727863346608686E-03
               9.1458689651473420E-04
              -9.2255848828377215E-03
              -4.0433596650623809E-03
               4.6274124747504794E-03
              -2.6714973805102822E-03
               6.7102899626402300E-03
              -9.6527012499287752E-03
              -7.4363942587940988E-03
               1.2556334042621709E-02
              -1.2600221311570500E-03
               6.4931363433726034E-04
              -1.3082224434689570E-03
               7.5826985218175789E-04
               3.5918877308730003E-03
              -7.6464564484517179E-03
               2.9604418378714639E-03
              -6.5683559345215362E-03
               6.5580573417534840E-03
               5.1820246894784122E-04
               6.6848544470747649E-03
               4.4457749281158363E-03
              -4.8907235188144389E-03
              -3.0353661650553703E-04
               1.3166482153496632E-02
              -4.0067299476227187E-03
               3.0534642010264388E-04
               6.6729224932678393E-03
              -1.2794366996367081E-02
               5.4301495512521806E-03
              -6.3404482990262021E-05
              -4.8068114159019962E-03
               5.1816130482562461E-03
               6.8670659033684704E-04
               4.9478038537756636E-03
              -8.5285622145342705E-03
              -4.9798353627223567E-03
               4.9367981008454302E-03
               5.9210054436813998E-03
              -3.8943823968038121E-03
              -7.6451718560115265E-03
               1.2948384362294237E-03
               9.3934522279117087E-03
               7.9675120805801410E-03
               7.9820721893250641E-03
              -1.6109755735463738E-02
              -9.4317232437458333E-04
               2.1174022060802566E-03
               4.8025305495511130E-04
              -1.2392362335605584E-03
              -1.9489542745954813E-03
              -5.7209733665790049E-03
              -1.1719426269592111E-02
               4.8199137449539094E-04
               1.2127696715841730E-02
               7.9625150611695537E-03
              -4.3164352888746902E-03
               6.7384360545489890E-03
               3.2394585656058245E-03
               5.5339025554663746E-03
               3.1308051489922731E-02
              -7.4095779885080121E-03
              -3.0631002507261376E-04
               2.6278681716606142E-04
               8.8357683842918595E-03
               1.3494036418555044E-03
              -4.6665492944075581E-03
               1.2106645338641861E-03
              -3.4255779513598364E-03
               2.3449231801971537E-03
               2.7712500317699207E-03
              -4.8119313156270825E-04
               2.3984395164468901E-03
               6.0042052190633095E-03
              -6.9769489581414258E-03
              -4.2870633996998347E-03
              -2.4940658429900252E-03
              -1.0566218573083239E-03
               2.3893730450782300E-03
               1.1786950134823877E-03
               3.2904758389844572E-04
               5.4082741346161006E-03
              -7.7046526283483692E-03
              -1.0217004398051401E-02
               8.1254373008824519E-03
               5.9789764277798085E-03
              -3.2323704482167151E-03
               3.3951305273510445E-03
              -6.6755682353898012E-03
               1.0053173416612934E-03
               3.0299522182701110E-03
               3.2981254304971907E-03
              -6.7008859776896898E-03
               4.2275514617655403E-03
              -7.1006167015669934E-03
               7.8406634886443952E-03
               1.2682547142199090E-03
               2.4555684949699110E-03
               1.8491065825786740E-03
              -3.0617240236782799E-03
              -1.2699567163934057E-02
               6.0875133984661343E-03
               5.2740266277639201E-03
              -2.8866640310324498E-03
              -3.4532089563188615E-03
               6.1397750061967108E-03
               1.1888484381416956E-03
              -3.1318218949643467E-04
              -4.8971033651028983E-03
               5.5960297208992385E-03
               9.3927213253017974E-03
              -1.0169927890506480E-04
              -3.7674276714335930E-03
              -4.0185936766092252E-03
              -4.5210521634864234E-03
              -5.2444419422894293E-04
              -4.1036586774304993E-03
              -1.3030545325696061E-03
               4.6700117309920811E-03
               5.3826352195846770E-03
               4.2393751309038798E-03
              -7.8464748959801434E-04
              -4.1403953342901119E-03
               9.7391714463220674E-04
              -1.2004938395942847E-03
               7.7329649484614131E-04
              -4.9727658325915266E-03
              -1.9390179256403113E-03
               9.1940792775820311E-03
              -3.1847356074433154E-03
              -6.2075716031145846E-03
              -8.8975371912764969E-03
               5.3637846996176042E-03
              -2.9427670802246461E-03
               2.6201837203288501E-04
              -2.6452950197476304E-03
              -9.4866871658148642E-03
              -2.2388622633739681E-04
               1.1887613885632533E-02
               5.8718376952891851E-03
               8.5684616630387431E-03
              -5.6709647221594595E-03
               4.9776117032409280E-03
              -6.0302336248338213E-03
               1.0060067614965957E-04
              -5.4838685488431491E-04
              -1.8848064463038571E-03
               3.6739482551800084E-03
               1.7464307934569978E-03
              -7.8824371919956164E-03
               6.8252215971487508E-03
               7.3524256109504076E-03
               1.9529589891906099E-03
              -7.9840474380246727E-04
              -2.0814324833300174E-02
               1.3184434969493656E-02
               4.9940627558997487E-03
              -8.2235649296908797E-04
              -8.5326461157253109E-03
              -5.2420609875782689E-03
               1.6322729504237067E-03
               3.9518679164900362E-03
              -3.5292541841007497E-03
              -3.2749252945663177E-03
              -4.8740485642261781E-04
              -5.7044538409387734E-03
              -4.6847202542176000E-03
               6.7444586113883775E-03
               1.1143049724623565E-02
              -1.9308822465619515E-03
              -2.3936468981738371E-03
              -2.3813812628271486E-03
              -5.3595310280229848E-03
               8.7290523484862114E-03
              -1.7626595052574277E-03
               1.8460690260131942E-02
               4.6816179441580894E-04
              -8.4942987169321256E-03
              -7.0419437140047353E-04
              -5.6348605505421030E-04
               6.4313121222014562E-03
               1.1593977006334522E-02
               2.7431339750103481E-03
              -6.0011007452222534E-03
               5.0424613802050912E-03
               5.4568055265971829E-03
               8.7195899157137746E-04
               1.0994327750748552E-02
              -4.4718976329901050E-04
              -3.3086312406050639E-03
               6.9341482709292038E-03
               6.5025962509268436E-04
              -6.2028017962012186E-03
              -1.8651974817266350E-03
              -1.5339348621104228E-03
              -2.8808236548552735E-03
              -1.0746593045111372E-02
              -2.8916116686352562E-03
               1.1578748109224448E-03
              -1.9877573984832461E-03
               2.2853959773239457E-03
              -6.0814218364424097E-04
              -1.1253961867332058E-03
               1.1660444745014769E-02
               2.3615286349250768E-03
              -1.6622699385313209E-03
               1.2631099422658770E-04
               5.6949387674490488E-03
              -9.7624404064121061E-03
               2.6604446097840124E-03
               4.0620585697267531E-03
               5.0760655988190892E-04
               6.9543444668694935E-04
              -1.8916319783713854E-03
               2.9318927582285786E-03
               3.7998846020825166E-03
               1.1378445473964737E-03
               4.1194196122452233E-03
              -8.3431949933023553E-03
              -4.7352656996838107E-03
               7.1315908557360265E-03
               4.0425703403793390E-03
               2.1268979234828852E-03
               6.9285928534993935E-03
               4.3842038853816323E-03
              -8.7734334456950353E-03
               6.3553310315897999E-03
               4.5254724516462274E-04
              -7.5450754040777349E-03
               5.1985350780270456E-03
              -1.1061154619108820E-02
               3.2324129394054970E-03
              -9.7941018080377213E-04
              -4.8655528635877000E-03
               4.3481086268080931E-03
              -5.9589828838242393E-03
              -3.3971845754297461E-03
              -4.5246487725521950E-03
              -3.7771580952513030E-03
               1.5968193109571825E-03
               1.1866795164745448E-02
               7.2571803688229316E-03
              -4.0873945424576797E-03
              -2.8730703165942637E-04
               1.7371793195908855E-02
              -2.2528945592828723E-03
              -1.6789880894597507E-02
              -6.3586076961624329E-03
               4.4100164161743408E-03
               1.4658709349180319E-03
               9.6450808893088782E-04
              -6.0310434366742730E-03
              -1.4622429546485979E-03
               2.7472592599798620E-03
              -1.9261317914064192E-02
              -1.0634784062047613E-02
               5.4933261555257596E-03
               9.1269184263303455E-03
               7.8617471447622043E-04
               4.9532431049233733E-03
              -3.3871084696690344E-03
              -2.2713793859045445E-03
              -5.1813610831345641E-03
              -1.2071890594990748E-04
              -3.7773467364826620E-04
               5.9650747924081182E-03
               1.2225544340781000E-02
              -5.2335055049407483E-03
              -4.6558355590880377E-03
               6.6378617940706782E-03
              -1.9044842303760702E-04
              -2.1918078031869250E-03
               8.1438002403729087E-03
              -3.8091500208111283E-03
              -4.6627563341626807E-03
               9.8197511706441323E-04
              -2.8805860747406183E-03
              -1.9237551534955167E-03
              -2.8762337977124839E-03
               6.9745068978662155E-03
              -7.1592204502640465E-03
              -2.9831452511079014E-03
               6.4959272175338324E-05
               1.8920819391840971E-03
              -3.2000736938621560E-03
               2.8915007437259857E-03
              -4.1502604319624123E-03
               2.6451353657400071E-03
               1.9250100692263540E-03
              -4.1658889865924956E-03
              -2.8559808580036856E-03
              -1.6017920865813815E-03
               2.2641714332736740E-03
               1.8893208157059465E-03
               5.4315001710454440E-03
               2.0576753838017323E-03
              -8.6699186312776230E-04
              -1.9400116767856008E-03
              -5.8119971443339560E-04
               3.2594346367857325E-03
              -3.1764336221425820E-03
              -8.7880310409910161E-03
               1.0068692512450099E-02
              -6.6370658862129235E-04
               2.1557038265885833E-03
              -4.4707003089727790E-03
               3.5041594267845296E-04
              -1.7927880495508535E-03
               1.3020370126020594E-03
              -9.5893091907379973E-03
              -1.8100825249258858E-02
               1.0394814977134627E-02
               1.3154806406332261E-02
               4.5486033170274061E-03
              -6.1740662324239167E-03
              -4.2089854212138261E-03
              -2.3840965216150823E-03
              -1.2612819215656267E-03
               7.3813590543037660E-03
               2.6693918802449174E-03
              -1.5441877450801875E-03
               6.6708324925801258E-03
              -1.0225650364526879E-03
               5.7244026502409548E-03
               6.0551573280807226E-03
               1.1645960510505173E-02
               6.3450418804933129E-03
              -1.6382941956555427E-02
              -3.9062057061381422E-03
              -4.1882749930591554E-03
               4.1875918181734448E-03
              -1.0642511245207017E-03
              -1.2420109131731825E-03
              -5.0622402361272358E-03
              -1.7181478084215124E-02
              -1.2322182565142654E-02
               8.0332386547137744E-03
               3.5968654600215342E-03
               1.3729138315970642E-02
               5.9740289798481351E-03
              -3.8786440896405347E-03
               4.0729199857422503E-03
               7.6094212521496205E-03
              -1.0149647122168759E-03
              -1.3514237936162046E-02
               2.7954990244186622E-04
               6.8653035050507492E-03
              -2.0360865541834928E-03
              -4.6943248375688317E-03
              -1.4572068713211836E-03
               2.6888183358743951E-03
              -2.0834243320113125E-03
              -5.0494162596639068E-03
               5.4303385506251252E-03
              -1.2474078871311384E-03
               9.5475995328327698E-04
              -2.9122112393034365E-03
               9.9784671326509102E-04
               8.7068917611729643E-04
              -2.5402884537760904E-03
               6.6575278102728513E-03
               4.5028385160943646E-03
              -1.6294840046572790E-03
              -3.7857018158017675E-03
              -3.5877086788173905E-03
               1.8158367180045416E-03
               4.1774549709144787E-03
              -4.7073258343979807E-04
               5.7554695624485583E-03
               1.4397177993941883E-03
               1.3378550491903549E-02
              -6.1608694259841163E-03
              -6.8488769321712059E-03
              -4.5256114438421728E-03
               9.0393615233720507E-04
               2.2309132606545320E-03
               4.9833554900241706E-03
               6.0975620032970084E-03
               4.8773413673101869E-03
               4.0916641622755290E-03
              -9.6315512507180630E-03
               1.1006860843439740E-02
              -4.4119811752757910E-04
              -1.0156003111379274E-02
              -7.4444301900695167E-03
               7.5144547887576090E-03
               8.2692330988870643E-03
               1.4614680259896326E-03
              -6.0166940314127140E-03
               4.7744247687645279E-03
              -4.5100613711631134E-03
              -3.1117696712742605E-03
               1.1112747465497274E-02
              -1.7357470813349932E-02
              -6.7974993213665369E-03
               6.7391149242464502E-03
               2.5357522220380889E-03
               3.2213157976009777E-03
              -1.4515430985803950E-02
               2.0732815952880200E-03
               1.0946708656582871E-02
              -4.1921519758158221E-03
              -4.5515358511795615E-03
              -4.5801739671581348E-04
              -4.5983155560054643E-03
              -9.2083995427358356E-04
               6.5232550836727757E-03
              -1.9783793163832084E-03
               4.5648437996004872E-03
               5.7256223184781888E-03
              -1.0899591321285561E-02
              -3.1877462494767474E-03
              -9.7823904861954816E-04
              -1.9109561222692220E-03
               5.0480463669388400E-04
              -7.5652379369819389E-03
              -2.0748216050573811E-03
               9.6523899326608712E-03
               2.5937297868826670E-03
              -6.6901122832777396E-03
              -4.8206511698679032E-04
               2.0576207675621900E-03
               5.8503494748233884E-03
              -5.5123661254421630E-03
               6.1420464941856264E-03
              -6.1742817570322999E-03
               8.9004262658577311E-03
               4.0538362795698221E-03
              -5.7968928705401457E-03
              -1.3704282483352019E-03
              -1.2092764113247612E-03
              -4.6731176764248554E-03
               5.1759551169766735E-04
              -3.1355406013769348E-03
              -1.0857972409660140E-03
              -1.8535435249069556E-03
               1.3344651676380584E-02
              -7.5153194643707460E-04
               7.3257646667663925E-04
               4.1435504296302803E-03
               7.1507425738923829E-04
              -1.6743631182216420E-03
              -3.4200226449469496E-03
              -7.2735433061997933E-03
               1.5876169222611199E-03
               6.5942790147513843E-04
               3.2475955073481069E-03
              -1.4426329974444681E-03
              -1.3932052107328847E-03
              -5.5224941348879907E-03
              -3.4659120337460726E-03
              -5.6331430483457026E-03
               6.6332008360940192E-03
               2.9630347452240585E-03
               1.1065777982708691E-02
               7.5921677596361313E-03
              -7.9064212405743958E-03
         &END THERMOSTAT_ENERGY
         &RNG_INIT
Wiener process for Thermostat # 1        1 F T T   1.0570193072987602E-01        2554248455.0        3733268398.0        2096963647.0         915983833.0        1292997779.0         989563289.0             12345.0             12345.0             12345.0             12345.0             12345.0             12345.0             12345.0             12345.0             12345.0             12345.0             12345.0             12345.0
Wiener process for Thermostat # 2        1 F T T  -5.0729818522276993E-01         187792199.0        1332764939.0        1272087322.0         282682701.0         988697858.0        4086000388.0        3692455944.0        1366884236.0        2968912127.0         335948734.0        4161675175.0         475798818.0        3692455944.0        1366884236.0        2968912127.0         335948734.0        4161675175.0         475798818.0
Wiener process for Thermostat # 3        1 F T T   8.9774137220556466E-02        3755061031.0        1753083868.0        1351179932.0         343881147.0        3312142877.0        1244557929.0        1015873554.0        1310354410.0        2249465273.0         994084013.0        2912484720.0        3876682925.0        1015873554.0        1310354410.0        2249465273.0         994084013.0        2912484720.0        3876682925.0
Wiener process for Thermostat # 4        1 F T T   2.1447125495896904E-01        2430503636.0         902227617.0        3039217662.0         205693714.0        2375800914.0        4220709598.0        2338701263.0        1119171942.0        2570676563.0         317077452.0        3194180850.0         618832124.0        2338701263.0        1119171942.0        2570676563.0         317077452.0        3194180850.0         618832124.0
Wiener process for Thermostat # 5        1 F T T  -7.4974817695318574E-01        3949927612.0        4293465109.0         224208328.0         677588237.0        2173092809.0        2514687022.0        1597262096.0        3906379055.0        3312112953.0        1016013135.0        4099474108.0         275305423.0        1597262096.0        3906379055.0        3312112953.0        1016013135.0        4099474108.0         275305423.0
Wiener process for Thermostat # 6        1 F T T  -2.3195632299180402E+00        4147399821.0         968438491.0         174961265.0         382156541.0        3672303660.0        2385050302.0          97147054.0        3131372450.0         829345164.0        3691032523.0        3006063034.0        4259826321.0          97147054.0        3131372450.0         829345164.0        3691032523.0        3006063034.0        4259826321.0
Wiener process for Thermostat # 7        1 F T T  -8.3038096976097500E-03        3725962017.0        3124905816.0        1692649901.0        3685368087.0         990134651.0        3321809881.0         796079799.0        2105258207.0         955365076.0        2923159030.0        4116632677.0        3067683584.0         796079799.0        2105258207.0         955365076.0        2923159030.0        4116632677.0        3067683584.0
Wiener process for Thermostat # 8        1 F T T   7.2955713326517235E-01        1426374835.0        1022225665.0        3431852557.0        2945126969.0        1347790872.0        2047858768.0        3281794178.0        2616230133.0        1457051261.0        2762791137.0        2480527362.0        2282316169.0        3281794178.0        2616230133.0        1457051261.0        2762791137.0        2480527362.0        2282316169.0
Wiener process for Thermostat # 9        1 F T T  -8.3876742673612970E-01        3633457436.0         863053678.0         665967915.0         928783000.0        4027924725.0        3556250224.0        3777646647.0        1837464056.0        4204654757.0         664239048.0        4190510072.0        2959195122.0        3777646647.0        1837464056.0        4204654757.0         664239048.0        4190510072.0        2959195122.0
Wiener process for Thermostat # 10       1 F T T  -6.7138423863751628E-01        3282585865.0         909372753.0         488063086.0        2442536289.0         174422437.0         477575080.0        4215590817.0        3862461878.0        1087200967.0        1544910132.0         936383720.0        1611370123.0        4215590817.0        3862461878.0        1087200967.0        1544910132.0         936383720.0        1611370123.0
Wiener process for Thermostat # 11       1 F T T  -7.2169956836733329E-02        3039538231.0          25912629.0        1608189467.0        1823124278.0        2331127605.0        2449500504.0        1683636369.0         362165168.0         814316280.0         869382050.0         980203903.0        2062101717.0        1683636369.0         362165168.0         814316280.0         869382050.0         980203903.0        2062101717.0
Wiener process for Thermostat # 12       1 F T T  -6.7722400494670465E-01        2762226669.0        4262778377.0        2250707948.0        3120407528.0        3704866228.0        1185520965.0         272317999.0         166758548.0         310112982.0         201045826.0        1680231254.0         118290799.0         272317999.0         166758548.0         310112982.0         201045826.0        1680231254.0         118290799.0
Wiener process for Thermostat # 13       1 F T T  -7.3817531449270457E-01        3689403510.0         367299738.0        3636386471.0        1925893934.0        3355800516.0        3520562622.0        2245755202.0        1652682525.0        2865544364.0         721509566.0         209733568.0         592362218.0        2245755202.0        1652682525.0        2865544364.0         721509566.0         209733568.0         592362218.0