 # Version information for this restart file 
 # current date 2024-11-21 19:29:15.179
 # current working dir /scratch/work/courses/CHEM-GA-2671-2024fa/students/zz10074/comp-lab-class-2024/Week12-IntroAIMD/Runs_Proton
 # Program compiled at                              Sat Dec 12 18:27:15 EST 2020
 # Program compiled on                                         cs001.nyu.cluster
 # Program compiled for                                                nyu-intel
 # Source code revision number                                       git:8c64c6e
 &GLOBAL
   PRINT_LEVEL  LOW
   PROJECT_NAME proton_aimd_1ns_every0.5fs
   RUN_TYPE  MD
   WALLTIME 21600
 &END GLOBAL
 &MOTION
   &GEO_OPT
     OPTIMIZER  BFGS
     MAX_ITER  100
     MAX_DR     3.0000000000000001E-03
     &BFGS
     &END BFGS
   &END GEO_OPT
   &MD
     ENSEMBLE  NVT
     STEPS  2000
     TIMESTEP     4.9999999999999994E-01
     STEP_START_VAL  2000
     TIME_START_VAL     9.9999999999998226E+02
     ECONS_START_VAL    -1.1027999833048329E+03
     TEMPERATURE     3.0000000000000000E+02
     &THERMOSTAT
       TYPE  GLE
       REGION  MASSIVE
       &GLE
         NDIM  5
         A_SCALE     1.0000000000000000E+00
         A_LIST     1.8595758612559999E+02    2.7263853498399998E-01    1.1526100454610001E+01   -3.6414578262600003E+01 \
             2.3173375816020001E+02
         A_LIST    -2.7809524712060002E-01    8.5951591808710006E-05    7.2189048017650004E-01   -1.9844539343859999E-01 \
             4.2409257583420001E-01
         A_LIST    -1.4825808131210000E+01   -7.2189048017650004E-01    1.3590902121280000E+00    5.1498896280349999E+00 \
            -9.9949268450990001E+00
         A_LIST    -1.0372189126880000E+01    1.9844539343859999E-01   -5.1498896280349999E+00    2.6661910891169999E+01 \
             1.1507715495310000E+01
         A_LIST     2.1801346360420001E+02   -4.2409257583420001E-01    9.9949268450990001E+00   -1.1507715495310000E+01 \
             3.0958394565589998E+02
         &THERMOSTAT_ENERGY
              -3.0904904684100779E-04
               3.9517985536040240E-03
              -1.0396152222728100E-03
               2.2766211038809615E-03
              -1.0773059630578551E-02
              -8.6022421130725938E-04
              -6.8389534646540384E-03
              -3.6504798964012941E-04
               1.1024930739744856E-02
               2.4865908947537003E-03
               1.0729157030049105E-02
              -1.1947795070296949E-03
              -7.3661482858462359E-03
               9.3267611282139211E-04
               2.6775545913213612E-03
              -9.4160327132899076E-03
               8.8920779816992930E-03
              -7.9648059536245094E-03
              -4.2740360464172897E-04
               4.4991035449895404E-03
               5.7567319966521022E-04
               1.3050025151095329E-02
              -5.4648503796641476E-03
              -4.0025652721611266E-03
              -2.6264375197411994E-03
              -1.0460295442726808E-02
              -1.7974230298692709E-03
               6.7225264704724329E-04
               4.5120220914398712E-04
               4.7523561522978082E-03
              -6.1588892419626581E-03
              -1.7945008695531494E-03
               8.4149292727008253E-03
              -3.5929757059202758E-03
              -2.1214685922532751E-03
               9.0378789391570968E-03
               3.3004069067225331E-03
              -6.8874623164994781E-03
               3.3649950734656112E-04
               2.7409471436558126E-03
               1.0410655681621568E-02
              -1.4000419135007741E-02
               5.5565692563908104E-03
               6.9499468411180990E-03
              -7.0070962482195198E-04
               4.1127846086723603E-03
              -7.8446449924752856E-03
              -1.0626576248102640E-04
               7.1446655917851796E-03
               4.1706391833777256E-03
              -1.1388143140408080E-03
               3.7369324918322296E-03
              -1.0611812486046852E-02
              -8.3787203929585208E-03
              -9.0019528523538183E-03
               6.6989334712557113E-03
               1.8014324939533079E-04
              -1.8113788482892745E-03
               4.7982060454843404E-03
               5.5506646140997783E-03
              -1.1321645475952740E-03
              -3.0511133917584970E-03
               1.6001505789304694E-02
              -2.3986026470068874E-03
               4.1081227298040753E-03
               2.9165782862904934E-03
              -4.2325743982419908E-03
               4.7781528684075203E-03
               5.1973620382399412E-03
              -3.6378589013125007E-03
              -1.2230259922512270E-02
              -4.4839068972785867E-03
              -1.0034839057904920E-03
               1.8523859530419746E-03
              -5.5167795334069309E-03
              -6.3699042447399948E-03
               8.5379373878641251E-03
              -9.8694564986142874E-03
               9.2633907237248160E-03
              -1.1328293057230705E-03
               4.3364013112817748E-03
              -4.8638069168444181E-03
               1.8360165126143647E-04
              -5.2035284171862391E-04
               1.2817098617842247E-02
              -4.7197032663904969E-03
               5.0088802831776817E-04
               2.4765988109117991E-03
              -6.1222005977343004E-04
              -5.7131220599101274E-03
               2.7232182637531620E-03
              -1.3356854596194847E-02
               4.5254905280970939E-03
              -4.7724207046978516E-03
              -3.0852258920456297E-03
               9.2310466383561957E-03
               1.0756609901801542E-02
              -1.3352698692948575E-04
               6.6337567148892131E-03
               5.1866375781145398E-03
              -5.5435812933993869E-03
              -9.6606957379782952E-04
               8.5766407930017684E-03
              -1.6638922175807639E-03
               3.8618645160897486E-03
               1.0174989686912385E-02
               7.0921119070412693E-03
              -4.0230416795508468E-03
               5.5741007139762239E-03
              -2.2215612965036807E-04
               2.4865413682140683E-03
               4.1635224732393923E-03
               1.8004415424583196E-03
               1.1799793680435237E-02
               5.7026703167477712E-03
              -4.2699837463557790E-03
              -4.6328886913145099E-03
               7.6513402201968932E-03
              -4.0363558475639107E-03
              -6.2185395420667443E-03
              -1.9657898252026626E-03
               3.1311528788994384E-03
               6.3302780060418597E-03
               4.2861628514704311E-03
              -9.2831443179339779E-03
              -3.1335381242582083E-03
               3.9201325021161575E-03
              -4.7788828203222233E-03
               6.3817005749976976E-03
              -4.7249353583354008E-03
               4.1473323038987344E-03
               1.2130860295148331E-02
              -4.9520126482692581E-03
               2.4456588329240013E-03
              -4.9930939824882276E-03
               3.2955555485035624E-03
               1.1260529624454387E-03
              -7.9363865665302326E-03
               7.3874631916452226E-04
              -2.7830686835178730E-03
               6.3956529663615185E-03
               7.0736010206833861E-03
               4.1023151643849610E-03
              -5.5934452594359032E-03
              -5.7092073968704827E-03
               2.0554993005430535E-04
               1.1753678693715625E-02
               2.7405794150246110E-03
              -1.9791350502015273E-03
               6.8514681490009378E-03
              -1.5543229261673149E-02
               7.1394509691001772E-03
              -2.1753634808332448E-03
              -1.0998308451059277E-03
               6.4360349907162853E-03
               2.5219376731573638E-03
               6.8962561779703588E-04
              -4.3886236896628098E-03
              -8.3787181654332559E-03
               6.5761241077709077E-03
               4.0180291680673476E-03
              -3.8611030966544625E-03
              -4.2820195690450157E-03
               2.0794964195430211E-03
               1.1663777478602574E-02
               6.8229047625146472E-03
               3.7321226735444182E-03
              -1.8068801882278419E-02
              -7.8620173697243668E-04
              -2.1738899267049788E-04
              -3.9605821204178951E-03
              -1.3283395042260099E-03
               1.1874128506678717E-03
              -4.9131893938772278E-03
              -6.6372065974631828E-03
              -2.7634543417707083E-03
               7.9286957649463731E-03
               4.6819759352165324E-03
              -3.9054935667225728E-03
               3.5188106145274127E-03
               1.0911756937513608E-03
               1.6779150687332267E-02
               3.0977697080700247E-02
              -6.9055285475064163E-03
              -5.0516664869961262E-04
               6.3863645396256431E-04
               9.8029013221414604E-03
              -5.0248549053377289E-04
              -9.5083736079544130E-03
              -9.7543179627818956E-04
              -3.5401519510081998E-03
               5.6891143088029571E-04
               4.9529966588491318E-03
              -7.1693849007484494E-04
               1.5508574945966615E-03
               1.0408936942746761E-02
              -3.9009115289565816E-03
              -2.6532001902146536E-03
              -1.2047630747917190E-02
               1.9666409002225054E-03
               4.9010348649790340E-03
               4.8570652116229195E-03
               2.5717530500821164E-03
               6.2645757004898394E-03
              -8.2465148309586438E-03
              -1.0338324713015670E-02
               1.0569150894037120E-02
               6.3302528475879692E-03
              -8.6775833638247039E-03
               6.3311548677591929E-03
              -2.1451453523376766E-03
               2.8136028538922438E-04
               1.6175021453742194E-03
               9.4319464880510701E-03
              -1.2935163381425517E-03
               1.5719580511294497E-03
              -7.0781195831221850E-03
               8.7052654131824971E-03
              -4.7344253029775228E-03
               3.8105116407828490E-03
               9.7080957438801891E-04
              -1.9471618271591456E-03
              -1.4578672217908225E-02
               1.1656550683570598E-02
               1.0637731470870002E-02
              -5.2619947893887435E-03
              -6.1345898042145571E-03
               6.0721286258795613E-04
               2.7605166191807845E-03
               2.6183191904632693E-03
              -6.6736390694980344E-03
               3.7746366945147166E-03
               1.0597900401746631E-02
               1.0389037822156721E-03
              -3.8220260668398449E-03
              -2.5214977776428366E-03
              -5.3701900410913798E-03
               1.8084870428261464E-03
              -3.0806365669401969E-03
              -2.3487703119985858E-03
               7.9078218775848336E-03
               8.7478629210258861E-03
              -1.1451470953671916E-03
               2.0758054061557766E-03
              -4.3535264443929156E-03
              -1.2648021286067743E-03
               3.3508526432049653E-04
              -5.1971782307035671E-04
              -3.0095864281409705E-03
              -5.2811000506347155E-03
               1.4815423680431506E-02
              -3.8491467154136956E-03
              -1.0661199192983556E-02
              -4.6257361386569532E-03
               5.4630080188646036E-03
              -5.2014473032366238E-03
               1.7310570228293229E-03
               1.6197595919329611E-03
              -6.4854164199099236E-03
              -4.0557131480062018E-03
               6.7984395858557718E-03
               7.1205173989617116E-03
               6.5075068828300553E-03
              -7.1186930626700173E-03
               6.6242128072374592E-03
              -7.5527466071946010E-03
              -8.1166752288945414E-06
               5.9729094885710562E-03
              -2.5876834263066119E-03
               3.0537141569238267E-03
               9.1412836319713486E-03
              -1.3467005732881530E-02
               9.4023736620928149E-03
               8.6608920868676987E-03
               2.4013877027396799E-03
               8.9403550724072962E-04
              -1.8640063448064320E-02
               1.5160263248026912E-02
              -3.7103462240993673E-03
               4.9053365548073951E-03
              -1.8492318848319356E-02
              -7.0295574352568042E-03
              -3.2506790505904310E-03
              -4.0628175184926978E-04
              -4.0719631532330994E-03
              -4.6463437948327810E-03
              -2.1922140528693084E-03
              -4.3295281077667860E-03
               1.6073608124410818E-03
               2.1490779239732006E-03
               8.3832631128945602E-03
              -3.2014726721755083E-03
              -1.4191767726360249E-03
              -1.9195791037814314E-03
              -5.6192458565376422E-03
               8.8509196962309293E-03
              -1.5995173232410448E-03
               2.0941382488863763E-02
              -3.6537290306177090E-03
              -6.7643755923227685E-03
               1.3736135826278430E-03
              -2.7779929857052743E-03
               6.4460319518305628E-03
               1.4488720335552617E-02
               4.5226459847927149E-03
              -1.1178393280161101E-02
               6.1688253485907433E-03
               8.6892817305328982E-03
              -3.9056284805172176E-03
               1.1422819930549017E-02
               2.0698332556540180E-03
              -3.3091099004890672E-03
              -4.2675883477728252E-04
               2.1070173761154115E-03
              -2.8024216911417071E-03
              -8.0586454949053586E-04
              -4.2681138666791794E-03
              -4.9356751679387835E-05
              -1.4940713753631272E-02
              -3.3889269623192091E-03
               4.1163666022863126E-03
               1.5164225740497638E-03
               6.2005448518784355E-03
               3.5417685829987385E-03
              -6.9028276140071310E-03
               1.7620329353929601E-02
               1.2275891477715171E-03
               2.6702724065562986E-03
               1.1408045335517341E-04
               7.6530626769462130E-03
              -1.3429428949624197E-02
               3.7054378737727029E-03
               8.9208968262318496E-04
              -3.1587891948171064E-03
               5.0703455325891962E-03
              -3.0785882197279799E-03
               1.3561237248453889E-03
               9.7414397404469127E-04
               5.9004893680797386E-03
               7.6139999538318457E-04
              -6.8637646772174753E-03
              -3.0629973682389654E-03
               2.9761955625410212E-03
               1.7079479335965118E-02
              -6.6925819818839305E-03
               4.3017708042166610E-03
               7.1917911559471843E-03
              -1.3039173030486535E-02
               7.0156543853841877E-03
              -1.8092980495720947E-03
              -8.9206801650663697E-05
               4.8538561945810728E-03
              -1.0129139952016669E-02
               9.4374231328832516E-03
              -2.0658540700698460E-03
              -2.1990098115234396E-03
               6.7654851385334069E-03
              -3.6124295557973807E-03
              -1.5375935230221347E-02
               3.2828104445410131E-03
               2.4223203239294309E-04
              -7.6583000819768279E-03
               2.0321158451425295E-02
               1.4124377740344736E-03
              -1.6328363404888816E-03
              -3.3807311171325806E-03
               1.2765183715359974E-02
              -4.2577350970483896E-03
              -1.0026914750115199E-02
              -5.3544240206120156E-03
               7.6128946843785480E-03
               4.8935659507641852E-03
               3.0316284277730958E-03
              -6.7919037147720933E-03
               3.0518649555931737E-03
               4.0121000262729216E-03
              -1.4050506702474491E-02
              -1.4853134227318893E-02
               2.0825633086250222E-03
               8.3543898731058726E-03
               3.2230911576297846E-03
               4.0073914319566535E-03
              -2.2864902620536127E-03
              -2.7128871099564755E-03
              -6.5963987172141161E-03
              -1.0002430615035597E-02
               1.0818668079601666E-02
               1.1325895679962604E-02
               1.1891166321248096E-02
              -1.1138215564901853E-02
              -5.2445614673583664E-03
               7.4850685201535965E-03
               8.1386451956633340E-04
              -5.5338071300590260E-03
               1.1502109620631275E-02
              -9.3664975522267477E-04
               4.6623553689691564E-03
              -9.2537224141076430E-03
              -5.1743360866667075E-04
              -1.2111516612488011E-03
               2.0391895863673894E-03
               1.4902719995116350E-03
              -1.3526700317142946E-03
              -1.9423606336238842E-03
               6.0013294086129444E-03
              -9.8888232611761169E-03
              -1.2514140347657651E-03
               7.2377500118732795E-03
              -6.6184587019150823E-03
              -3.1799948567898320E-03
               2.6403823773108689E-03
               2.0414773663903721E-04
              -4.3417428575534016E-03
               3.5979238415103504E-04
               3.4428699075343665E-03
               3.6445694513180622E-03
               5.4160778465656284E-03
              -2.2244736309943175E-04
              -8.9592600972829685E-04
               8.0858876862155568E-04
              -2.5157347508609922E-03
               8.0847998920026073E-03
              -2.7845984905392521E-03
              -9.8523327188090818E-03
               8.4868442796631784E-03
              -4.2554347515905535E-03
              -2.4729804488629495E-03
              -6.2186813906950330E-03
              -1.1051705290903704E-03
              -5.2410792349796397E-04
              -1.3265703766835607E-03
              -7.2934488886650757E-03
              -1.8675982593047830E-02
               1.6260761441991244E-02
               1.4471082973301573E-02
               5.6899956748905928E-03
              -8.8992533411623633E-03
              -1.0001984658072555E-03
              -6.7224979226226545E-03
              -6.3606537348366698E-03
               4.8120101016797022E-03
               5.9550454644941996E-04
              -2.8172203432966034E-03
               8.1683755127529671E-03
               3.9841929373393963E-03
               9.4535000154897676E-03
               1.6803254889020645E-03
               1.4264290777429675E-02
               1.0381584202303199E-02
              -9.6923153633990053E-03
              -2.0181562652628765E-03
              -1.2352188327973154E-02
               1.0801167055223411E-02
               1.3378000424362779E-03
               1.3804200639763384E-03
              -3.8842252889033529E-03
              -1.4888799093586471E-02
              -2.0327046959174914E-02
               1.3030043984278693E-02
              -3.5973702058217311E-03
               1.7548360566960561E-02
               1.0162147432845705E-02
              -5.2458449194342088E-03
               7.7266699438607606E-03
               4.5192534085347624E-03
               2.0611260668363589E-04
              -1.4504730291867987E-02
               3.3114586734086147E-03
               8.9085722787995373E-03
              -3.8320348330273405E-03
              -1.7650573682098903E-03
              -4.8703539245824705E-03
               4.1024769096831629E-03
              -6.1353437920235734E-04
              -1.9444667394874792E-03
               5.6002092962921255E-03
              -4.1826627004891870E-05
               1.8009321805513184E-03
               2.9296446782783371E-03
              -2.3831170344098705E-03
              -8.4493188808523181E-04
              -2.7253423533420392E-03
               7.1539374082437062E-03
               4.9759822163362045E-03
              -4.1665550368190293E-03
              -3.3830553993690867E-03
              -8.2676182951582043E-03
               3.7403950475394421E-04
               1.0119910617179925E-02
               3.6136196234537871E-03
               7.7080935510125013E-03
               5.1315362239653627E-03
               1.7803597300763176E-02
              -8.5730249531322852E-03
              -5.8749879866963790E-03
              -4.9472631057343218E-03
               5.4378110903622280E-03
              -3.1677423914028917E-03
               4.7307944944243582E-03
               6.8821390194425359E-03
               4.9019291838349631E-03
               7.4344988550299664E-03
              -1.8001008523273541E-02
               1.2793887433046894E-02
               4.7193737364345156E-03
              -1.1933944611428764E-02
              -5.0890631515151273E-03
               7.2143301028895325E-03
               8.2677094013552058E-03
               2.5781609438778989E-03
              -3.1389033420480290E-03
               1.2755065213482724E-02
              -4.3056941959045648E-03
              -4.1827785867527443E-03
               3.2296043587038631E-03
              -1.8022327592667146E-02
              -3.2126425167569514E-03
               7.0656529765806353E-03
               6.9295369430746943E-04
               3.6558925358227698E-03
              -1.7547703097036765E-02
              -6.8036654155800033E-04
               1.3664144449797744E-02
              -3.0839565011759450E-03
               4.4630867223278926E-04
               7.3868354380320360E-04
              -2.3885717356124984E-03
              -1.6878166326949830E-03
               8.8995219807924686E-03
              -5.2802500962879483E-03
               6.1325568602757603E-03
               5.0387209049630767E-03
              -1.1692817765713289E-02
              -4.9638667903553809E-03
               9.2925376137358517E-04
              -1.5234660391174307E-03
              -1.5877341162069960E-03
              -6.2939565287028331E-03
              -5.7557712123857815E-03
               1.2206421489042758E-02
               6.6810754729416154E-03
              -1.8029778386813020E-03
              -1.9672802798077413E-03
               7.8031808255168370E-04
               7.0617877291359460E-03
              -1.0446818254041998E-02
               6.4581083563365650E-03
               3.1810971516619874E-05
               6.8449242729193690E-03
               1.0705161318721515E-03
              -6.6595687055735174E-03
              -7.5050525670001273E-03
              -3.0426917202005274E-03
              -4.2288599466639753E-03
               2.5268040638533841E-03
              -1.1225611788605650E-03
              -3.1103819601840423E-03
              -3.8477094480173831E-03
               1.2442771102655081E-02
              -8.7378014355080677E-04
              -2.0960242396829906E-03
               3.0648048192568520E-03
              -1.3273905052607507E-03
               5.4931378548257513E-03
              -7.1710454971347180E-03
              -8.1312207825314717E-03
               3.1707730758941850E-03
              -4.1453647362401144E-03
               9.1566079631491505E-04
               2.1830790828273792E-04
              -5.1155392628055348E-03
              -4.6179264228050007E-03
              -6.6193265421621676E-03
              -3.4497963265104144E-03
               2.5875655516753976E-03
               1.2557794855192315E-02
               1.4413574861804213E-02
               2.8709836719898281E-03
              -5.4944099217554545E-03
         &END THERMOSTAT_ENERGY
         &RNG_INIT
Wiener process for Thermostat # 1        1 F T T  -4.3866331554119464E-01        3463026290.0         996283881.0        3077134961.0        1575188103.0         352198642.0        1255594993.0             12345.0             12345.0             12345.0             12345.0             12345.0             12345.0             12345.0             12345.0             12345.0             12345.0             12345.0             12345.0
Wiener process for Thermostat # 2        1 F T T   6.1664168869435698E-01         581397078.0        3867423482.0         327967633.0        1486938113.0          26429212.0        4093174459.0        3692455944.0        1366884236.0        2968912127.0         335948734.0        4161675175.0         475798818.0        3692455944.0        1366884236.0        2968912127.0         335948734.0        4161675175.0         475798818.0
Wiener process for Thermostat # 3        1 F T T   2.0518696979926636E+00        1062843694.0        3278483557.0        2630284801.0         342499437.0         508306288.0         570022504.0        1015873554.0        1310354410.0        2249465273.0         994084013.0        2912484720.0        3876682925.0        1015873554.0        1310354410.0        2249465273.0         994084013.0        2912484720.0        3876682925.0
Wiener process for Thermostat # 4        1 F T T   8.6483655468840070E-01         858988242.0         878260951.0        1341305949.0        1687735708.0        1261279903.0        1615458589.0        2338701263.0        1119171942.0        2570676563.0         317077452.0        3194180850.0         618832124.0        2338701263.0        1119171942.0        2570676563.0         317077452.0        3194180850.0         618832124.0
Wiener process for Thermostat # 5        1 F T T  -7.2623034709222295E-02        3503246388.0        3640749438.0          80160185.0        4050541932.0        1809135917.0         826251710.0        1597262096.0        3906379055.0        3312112953.0        1016013135.0        4099474108.0         275305423.0        1597262096.0        3906379055.0        3312112953.0        1016013135.0        4099474108.0         275305423.0
Wiener process for Thermostat # 6        1 F T T   2.6094790259997280E+00        1648662560.0         298744963.0         276080774.0        3452610735.0        2129471280.0        4132861437.0          97147054.0        3131372450.0         829345164.0        3691032523.0        3006063034.0        4259826321.0          97147054.0        3131372450.0         829345164.0        3691032523.0        3006063034.0        4259826321.0
Wiener process for Thermostat # 7        1 F T T   1.3118545096244869E+00        4025695046.0        1027992126.0        3217973651.0        2155997853.0        1780084567.0        1907814450.0         796079799.0        2105258207.0         955365076.0        2923159030.0        4116632677.0        3067683584.0         796079799.0        2105258207.0         955365076.0        2923159030.0        4116632677.0        3067683584.0
Wiener process for Thermostat # 8        1 F T T   7.1524753302764935E-02        2631328646.0          66904958.0        3191287979.0        3452779318.0        2048731614.0        3759050068.0        3281794178.0        2616230133.0        1457051261.0        2762791137.0        2480527362.0        2282316169.0        3281794178.0        2616230133.0        1457051261.0        2762791137.0        2480527362.0        2282316169.0
Wiener process for Thermostat # 9        1 F T T  -1.0980465140389938E-01        1977246253.0        1903248984.0        3508262652.0        2466127224.0         300284070.0         767034957.0        3777646647.0        1837464056.0        4204654757.0         664239048.0        4190510072.0        2959195122.0        3777646647.0        1837464056.0        4204654757.0         664239048.0        4190510072.0        2959195122.0
Wiener process for Thermostat # 10       1 F T T   1.9081094228418396E+00         405211316.0        3215252316.0        3029076279.0        3899943421.0         886526099.0         586515832.0        4215590817.0        3862461878.0        1087200967.0        1544910132.0         936383720.0        1611370123.0        4215590817.0        3862461878.0        1087200967.0        1544910132.0         936383720.0        1611370123.0
Wiener process for Thermostat # 11       1 F T T  -5.3344054384789541E-01        3450000619.0        1059116059.0        3916567347.0         635813254.0        3901690603.0        3696418470.0        1683636369.0         362165168.0         814316280.0         869382050.0         980203903.0        2062101717.0        1683636369.0         362165168.0         814316280.0         869382050.0         980203903.0        2062101717.0
Wiener process for Thermostat # 12       1 F T T   8.9448207812820613E-01        1696219248.0        1783691089.0        1685873716.0        1285524479.0        2726140602.0        4269630803.0         272317999.0         166758548.0         310112982.0         201045826.0        1680231254.0         118290799.0         272317999.0         166758548.0         310112982.0         201045826.0        1680231254.0         118290799.0
Wiener process for Thermostat # 13       1 F T T  -1.0297203341400047E+00        4019568919.0        3484227797.0         947541978.0        4224885921.0        2127446270.0         502669027.0        2245755202.0        1652682525.0        2865544364.0         721509566.0         209733568.0         592362218.0        2245755202.0        1652682525.0        2865544364.0         721509566.0         209733568.0         592362218.0