 # Version information for this restart file 
 # current date 2024-11-21 16:13:54.593
 # current working dir /scratch/work/courses/CHEM-GA-2671-2024fa/students/zz10074/comp-lab-class-2024/Week12-IntroAIMD/Runs_Proton
 # Program compiled at                              Sat Dec 12 18:27:15 EST 2020
 # Program compiled on                                         cs001.nyu.cluster
 # Program compiled for                                                nyu-intel
 # Source code revision number                                       git:8c64c6e
 &GLOBAL
   PRINT_LEVEL  LOW
   PROJECT_NAME proton_aimd_1ns_every0.5fs
   RUN_TYPE  MD
   WALLTIME 21600
 &END GLOBAL
 &MOTION
   &GEO_OPT
     OPTIMIZER  BFGS
     MAX_ITER  100
     MAX_DR     3.0000000000000001E-03
     &BFGS
     &END BFGS
   &END GEO_OPT
   &MD
     ENSEMBLE  NVT
     STEPS  2000
     TIMESTEP     4.9999999999999994E-01
     STEP_START_VAL  500
     TIME_START_VAL     2.4999999999999795E+02
     ECONS_START_VAL    -1.1027999833048329E+03
     TEMPERATURE     3.0000000000000000E+02
     &THERMOSTAT
       TYPE  GLE
       REGION  MASSIVE
       &GLE
         NDIM  5
         A_SCALE     1.0000000000000000E+00
         A_LIST     1.8595758612559999E+02    2.7263853498399998E-01    1.1526100454610001E+01   -3.6414578262600003E+01 \
             2.3173375816020001E+02
         A_LIST    -2.7809524712060002E-01    8.5951591808710006E-05    7.2189048017650004E-01   -1.9844539343859999E-01 \
             4.2409257583420001E-01
         A_LIST    -1.4825808131210000E+01   -7.2189048017650004E-01    1.3590902121280000E+00    5.1498896280349999E+00 \
            -9.9949268450990001E+00
         A_LIST    -1.0372189126880000E+01    1.9844539343859999E-01   -5.1498896280349999E+00    2.6661910891169999E+01 \
             1.1507715495310000E+01
         A_LIST     2.1801346360420001E+02   -4.2409257583420001E-01    9.9949268450990001E+00   -1.1507715495310000E+01 \
             3.0958394565589998E+02
         &THERMOSTAT_ENERGY
              -3.3188303261722442E-03
              -1.1225726220533876E-04
              -5.0072305884296794E-04
               8.3564469699264217E-04
              -6.4063365911900295E-03
               6.8066858802372091E-04
              -2.8322107887225928E-03
              -2.8023843786266446E-03
               8.8102897110555797E-03
               2.2502723651479607E-03
               6.4965355999310331E-03
              -2.5852319002403592E-03
               3.1309048756975517E-03
              -8.4576296741258744E-04
              -3.5118345900426464E-04
              -3.5165573149061155E-03
               2.4327058988983731E-03
              -3.0832461662089181E-03
               4.3274854089155280E-03
              -5.9608609626367358E-04
               2.5776791498577801E-03
              -2.8266190798498384E-03
              -7.4407881359317234E-04
               1.4247350883296944E-03
              -4.1799173259587201E-03
              -5.4443941620653871E-04
              -2.7889454364761904E-03
               5.0862812532546271E-03
               2.4987379679881271E-04
               1.2753373754151396E-04
              -5.9157886637605465E-03
               4.2517915203423243E-03
               5.8476665200455670E-03
              -6.4602994824779062E-05
              -2.3544294691598047E-03
               4.9383193744695015E-03
              -6.8474058606976952E-04
              -1.9267322153527063E-04
               1.1226915705510882E-03
              -4.9647070971839090E-03
               3.6424971288703607E-03
               7.7121017857009863E-04
               3.5405654576851618E-03
               4.4498613839356648E-03
              -8.4940671035988388E-03
               4.8383684607472303E-03
              -2.7283815424781425E-03
               8.3365442902054551E-04
              -5.2304095345164364E-03
               1.8003007078324926E-03
              -2.3880218459898332E-04
              -2.9328205016754278E-03
               4.7506524859967556E-05
               9.1038156090022518E-04
              -5.0942292515109913E-03
               4.1097486463322576E-03
               1.6771645299900465E-04
              -7.0080602379016949E-04
               1.5763821367612476E-03
               4.6903034842826069E-03
              -2.2274920735277275E-03
               1.4582011594950301E-03
               3.6818922279997506E-03
               1.4391279189942513E-03
               7.8366022948875495E-05
               2.1483142396314593E-03
              -9.5354921580896080E-04
               3.9718650147137933E-03
               3.3503907696442363E-03
              -1.3745913662593227E-03
              -1.4030591066302174E-03
              -2.0877626208992478E-03
              -1.3614499385784301E-03
               1.6231820815224376E-03
              -3.7478275284832845E-03
              -4.5829393349428454E-03
               4.9808036898264935E-03
               6.4728836804101402E-05
               6.9756849468442014E-03
               5.2781008524570630E-04
              -4.3304711304530518E-03
              -1.5636617784037855E-03
               1.7834953719414572E-03
              -2.9982407849963932E-04
               2.4223825445170146E-03
               1.8846407727545473E-03
              -4.5299616999348686E-03
               3.4401908816327803E-03
               2.2932746939790618E-03
              -5.8684292128546511E-03
               4.9528491735750099E-03
              -5.9924328288634499E-03
               2.1150704142511661E-03
               4.1780840278835898E-03
              -4.6530329698288219E-03
               8.7377464770754514E-03
               5.8029688780939824E-03
               1.5066815216649824E-03
               1.8544551327277523E-03
               5.9109399429226476E-03
               1.3227396474051339E-03
              -2.7982705489348154E-03
               4.0605689824469847E-04
              -2.3655072562430461E-03
               2.0931981460227842E-03
              -1.4700460701473276E-03
               3.6885505409244733E-03
               3.1342332089850505E-05
               6.1647568056180544E-03
              -1.5481658951156446E-03
               3.4734555866759837E-03
              -5.8306762656110578E-04
               3.1282318227487732E-03
               1.9821795644790795E-03
               2.5172691380935331E-03
               4.6378015954311440E-03
              -6.8579377359274662E-03
               2.9540340660475198E-03
              -4.2670447146430229E-03
              -2.8022044335745830E-04
              -5.3378521320606286E-03
               3.7618254987027626E-03
               6.1960373948684111E-03
               5.3293411629086788E-04
              -7.0587847499047635E-03
              -1.7798472025653610E-03
               2.3070561865060228E-04
               4.5532203626144765E-04
               4.0273186576038162E-03
               2.4687726255906107E-03
              -4.1427721085443769E-03
               3.3912095546173035E-03
               3.3133889504483832E-03
               3.3828853731292572E-05
              -1.7127952566813407E-03
               1.5040192425504642E-03
              -3.3124175045336915E-03
              -4.4631175896452503E-04
              -3.6969220464109294E-05
              -6.3990178350837017E-03
               7.1338945014387976E-03
               4.5353021377658558E-03
               1.9898994120062545E-03
               8.3843528182037596E-04
               3.2018353940831688E-04
              -2.0492276627669158E-03
               5.0249693530072092E-03
              -3.0010125243511306E-03
              -4.5350897145037499E-04
               8.4475229451432769E-03
              -7.3761324694500401E-03
               1.1034416928223346E-03
               1.2237333168392509E-03
               5.9019464283684717E-04
               7.8157039103860914E-05
              -2.8893317389509982E-03
               1.5419042618045964E-03
              -3.5200144239981739E-03
              -3.0223408731432193E-03
               5.0936973087606779E-03
              -4.0510649713870464E-03
               1.3848271436916191E-03
              -1.6778028629200881E-04
              -1.2219439769800677E-03
               4.2646892753498283E-03
               6.8166715988024311E-03
               2.9885172479051109E-03
              -7.5538065587181236E-03
              -4.4843558591732245E-03
               3.4754953239209269E-03
               9.3611460946903377E-04
               4.9573102330300071E-03
              -4.7271493025832008E-04
              -3.8012955892388709E-03
               1.0300334667327389E-03
              -2.3603710525848774E-03
               3.8837498981789298E-03
              -1.4132304728060828E-03
               4.4904698013644960E-03
              -3.9622686007882409E-03
               1.7533217978187008E-03
               5.6974036473931072E-03
               2.7186533735365878E-02
              -5.9457860978650804E-03
               1.5985698663103414E-04
              -4.7540089986380484E-04
               4.9730762178810351E-03
              -4.6852183018784421E-03
              -2.1714932712253556E-03
              -2.8280703701225140E-03
              -4.6005352655852550E-05
               1.4548148847650889E-03
              -2.8665482771326758E-03
              -5.0182204443011066E-03
               2.0282191895889482E-03
               2.3530854094833413E-03
              -4.4352518718787318E-03
               3.6052536083303575E-04
               1.8552323426956156E-04
               4.9350834843372732E-03
               1.2172226240083838E-03
               2.2192152921358594E-03
               1.9596843402366398E-03
               3.0874325670905223E-03
              -6.5752123106219444E-03
              -6.4265549997026801E-03
               3.2289287401892452E-03
               7.6808646968226364E-04
              -9.5707260234227116E-03
               8.9489504129307978E-03
              -1.3026874233590707E-03
               1.3283566020377927E-04
               6.9438831965520312E-03
               3.9537037660418283E-03
              -7.8367648561247262E-03
               7.2616479993438780E-03
              -2.1614648252881617E-03
               8.1684863309517710E-04
              -3.6386147242156832E-03
               4.3477139493731373E-04
              -1.5242180768816520E-03
               1.2592310490506690E-04
              -1.3276724442576088E-03
               3.6426690068432392E-04
              -2.5284882108099127E-03
               7.1305384606426959E-04
               8.7036967755984912E-04
               1.8482710434957784E-04
              -2.9982973847456156E-03
              -5.5113201724446364E-04
              -1.9212604893409399E-03
               5.7062693886271807E-03
               5.3691212791362230E-03
              -3.4685046731275553E-03
              -5.8184364807420353E-04
               1.4982486760779122E-03
              -3.4733582245239899E-03
               2.3214400993709456E-03
               1.0451696678006322E-03
               1.4525123490130421E-04
              -2.3863147261706580E-03
               1.5851534522629759E-03
               1.4654210330177547E-03
              -7.8072935133125952E-04
              -3.9235253433440431E-03
              -2.1175843416313686E-03
               2.0616747159562040E-04
              -3.4792711157396782E-03
              -3.0257717492556866E-04
              -3.7060877227174968E-03
              -3.5901884591704530E-04
               2.1001342574020004E-03
              -3.8572159372846741E-03
              -1.2723103197952535E-03
               6.0336718962995936E-03
              -2.5466156879926979E-03
              -1.3255857107544989E-03
              -1.0217032723740423E-03
               2.2425093362157767E-04
              -2.2495129233116948E-03
               2.7934113871455847E-03
               3.8551835891574280E-03
               3.8448474839567447E-03
              -2.9596381716476110E-04
               4.0836826276623569E-03
              -1.3730574216450301E-03
              -3.2175497995676813E-03
               2.5256196840812125E-03
              -3.6696723206282029E-03
               3.4330988866879916E-03
               6.1087270005862743E-04
              -7.1314295601968142E-03
               4.8335327216673385E-03
              -9.5366429795051946E-05
              -2.7873090855286731E-03
              -2.1371382348735471E-03
              -2.5286408319219284E-03
               6.8622198763452691E-03
              -8.8637173792895986E-04
               4.5283309163568215E-04
              -4.4118641914707062E-03
              -4.8651622701916140E-03
               1.4177270773338940E-03
               5.3905449695145456E-03
               5.6729990252462822E-04
              -3.6505456823952677E-03
               5.7957495930119462E-03
              -5.8620864479081210E-03
               1.0689614411030048E-03
              -2.7201488978181941E-04
               6.5368821741048641E-03
              -4.8116850436360180E-05
               2.1698775257821060E-03
               6.9693242941928457E-04
               1.3439995688945648E-04
               8.1200644072665414E-03
              -8.0405608673627376E-03
               3.5169463015316082E-03
              -6.1507831638324319E-05
              -2.0503062994352205E-03
              -2.7553462934959494E-03
               2.3468095119193659E-03
               2.7827783567279567E-03
               6.7819257418676431E-03
               1.8400162623395664E-03
              -1.5997955088042585E-03
              -4.3118935424595953E-03
               3.1656573120819390E-03
               1.5518782578264039E-03
               1.9173222117592524E-04
              -7.3100150000977502E-04
              -2.7985955312418839E-03
               2.0864771302470230E-03
               1.4667643610093766E-03
              -9.1801762539798527E-05
              -2.0819056471095129E-03
              -4.1909378621086619E-03
               3.8258289040513510E-03
              -6.5563839313439792E-04
               3.0060927678643946E-03
               2.4467738646764244E-03
              -2.4406721089758904E-03
              -7.2234278697857926E-04
              -4.6005785402756022E-03
               1.5087011145002696E-03
               2.2374533343249782E-03
               3.1068481636251088E-03
               1.0337920896993562E-03
               1.1308237280224587E-03
              -1.1212819300442109E-03
              -2.5667712298777586E-03
               1.8041183678882866E-04
               2.6197410738167596E-03
               5.7005664252752445E-03
              -1.5093270221557072E-03
               1.4754888628440497E-03
               2.7193239193768256E-03
               8.4137065122836217E-04
               2.8034810371199296E-03
               4.6556477104471592E-03
               1.5949489509126260E-06
               2.4483375372402419E-04
               2.1916756769052659E-03
               1.0042068228345235E-03
              -1.0013585215282279E-03
               1.1451662294313565E-03
               1.1200646971668215E-03
              -2.4533168435719060E-03
               1.8370343162001390E-03
              -4.9844013254014578E-03
               7.5563817314669381E-04
               2.5733872409051005E-03
              -2.3955400547649226E-04
               5.1496509426040542E-03
              -2.9816963108265284E-03
               1.3322349509220246E-03
              -2.0158162581176645E-03
               3.5715500162815522E-03
              -1.2005570776453716E-03
              -5.4434887564411413E-03
               3.2285903583792229E-03
              -3.5264458627826578E-03
               8.4590504062331956E-03
               3.3177904469229216E-03
              -1.9030250956475426E-04
               6.6075719506818534E-04
               8.3731280184663939E-03
              -5.6118280292745707E-04
              -1.1186225266107601E-02
               6.7568023296064417E-04
              -3.5226892747571566E-03
              -1.5098031194074719E-03
               1.5353637687836922E-03
              -2.6413236450353447E-03
              -2.3101742677225550E-03
               4.6566496828893220E-03
              -4.8441660663194634E-03
              -6.3391160958546963E-03
               6.1711128644773114E-04
               2.8255894978404424E-03
               6.8853279580538649E-04
               2.1542263864203748E-03
              -3.7690731707898531E-03
              -2.9810229129402597E-03
              -8.5261908622457261E-04
              -3.5314574170151893E-03
               6.4020355962189635E-03
              -2.6005879500534852E-04
               6.2835056056805014E-03
              -7.7151011222927361E-04
               6.2746539488215444E-04
               2.5991465461185728E-03
              -7.0338444790336786E-04
              -6.4369777195439452E-03
               1.2767428831049199E-03
               3.9125898541118509E-03
               4.3854830275013232E-03
               3.3211729810965203E-04
              -5.2952681199175142E-05
              -2.9890485424772968E-03
              -2.8685392450607974E-03
               3.4964593556647723E-03
               5.9646401991810243E-03
               2.1375152507738041E-03
              -5.0433991131310311E-03
              -1.8036527892764543E-03
               2.4678263933888703E-03
              -7.5002886317343011E-03
              -3.2686915771785331E-03
               1.8462390111072631E-03
               6.0049663569175342E-04
               1.5037932303557327E-04
              -6.3317916823293972E-04
              -4.9895186366892014E-03
              -1.0605764729170858E-03
               5.4207212296574908E-03
              -2.7827779336230610E-03
               6.9337473575512227E-04
              -7.0092456678446551E-04
              -1.0372354806951730E-03
               2.7543200320058605E-04
              -1.8868506208394357E-03
              -4.8680651582052215E-04
               3.5998089918279770E-04
               3.4123451181838205E-04
              -3.0066084756637473E-04
               1.7887227821987714E-03
              -5.0532337724909808E-03
               5.1326889653586366E-04
               7.3937866963100464E-03
              -8.1611466083753275E-04
              -2.0514472985693876E-03
              -3.7593782368354751E-03
              -2.9170464035237816E-03
               4.3988717493785969E-03
               3.4604323195291443E-03
              -2.8120715545952888E-04
              -9.8455295765933104E-04
              -1.2150776543845680E-03
              -1.4467437134526808E-04
               8.0801280558428085E-03
              -1.6987228411388796E-03
              -2.1813404506177436E-03
               2.8210011673150564E-03
               3.2973371694827907E-03
               6.4047648457106858E-03
               4.7341994045221811E-03
              -1.9610647470281965E-03
              -1.9479998850631885E-03
              -1.0143669686012383E-03
              -3.0616499882363600E-03
              -7.3893545656053914E-03
               4.5371378815971617E-03
              -2.7364560047265515E-04
              -1.4285119954792738E-03
              -2.9266574476595596E-03
               1.0545828297515900E-03
              -3.0383153047060679E-03
               1.5548939592155506E-03
               1.7223121168045072E-03
              -7.4192417850618524E-04
               3.8297625615827660E-03
              -2.9744131098573046E-03
              -2.8696966533459317E-04
               5.5008871792200627E-03
               4.5768757853497568E-03
              -4.1849403705138408E-03
              -2.2746869925331175E-03
              -8.4230137502078824E-04
               2.9302321066549870E-03
              -2.8095884247514575E-03
              -7.1811406694066574E-04
               3.2986433204502778E-03
              -5.9639649194434378E-04
              -1.3875727183246165E-03
               5.0112185314096095E-03
              -6.7833420516575271E-04
               9.6775124939796743E-04
              -6.0787185723294003E-03
               2.1620099149031839E-03
               1.9713376675328789E-04
               6.0042597153840758E-04
               1.6589674649151367E-03
               2.7437184831376298E-03
               4.6389345185454483E-04
              -1.3202885347890160E-03
              -5.0112075785496493E-03
              -4.2276644590261815E-03
               4.7981945349631974E-03
               1.6918502066226045E-04
              -9.5549907385633279E-04
               2.6221643372260554E-03
              -1.2425007854092083E-03
              -4.4112495875888117E-03
               2.6720731611760986E-03
              -7.1322937044769582E-03
               6.7604793440055964E-03
               5.9819072741447588E-03
               4.6100579227978640E-03
               2.0315253036533145E-03
               1.3990813498392775E-03
              -1.5586455139749884E-03
              -8.4490501889733990E-03
               6.7112071182403362E-03
              -2.9546583595252162E-03
              -6.9583531701082040E-03
               2.0487375986233845E-03
               4.5232772025638711E-03
               1.8903212839381915E-03
               1.8459304535925710E-03
               2.9442490664935849E-03
               1.9581793536392196E-05
              -2.5961762527104762E-03
              -7.2554479195878607E-03
               4.0079109723929057E-03
               1.8091951730627720E-03
              -2.1162862554767090E-03
               3.6814738386370576E-03
               5.0397686366149960E-03
              -4.6269625162087677E-03
              -9.4757589110163257E-04
               1.4451448420764489E-03
               2.9220089467764943E-03
              -2.3970597436637391E-03
              -3.4774556046453121E-03
               5.0903775843197190E-04
               4.9007928389819763E-04
               7.6661125520447013E-04
               4.6362595602728457E-03
               3.8107443916688328E-03
              -3.4468516300552071E-03
              -2.3292101936127543E-03
               1.0473499710487554E-03
              -4.8916147258979623E-03
               2.7011119885218247E-03
               3.0908341356434956E-05
              -7.2289654952801275E-05
               1.0112454426845117E-03
               2.2588308697614797E-03
              -1.9685877290687550E-05
               1.4241221344918540E-03
              -2.8267653138231759E-04
              -3.5188282400385115E-03
               9.6348098777149758E-04
               2.9221564403080435E-03
              -1.5987591641326800E-03
              -2.8106364505025151E-03
               8.7428991052128781E-04
               6.6870119385633725E-03
               3.1705799956518758E-03
              -9.0478606792043226E-03
              -1.8755429742872726E-03
              -4.0802421090785975E-04
              -4.8268831340708603E-04
              -1.9495161516711042E-03
              -8.4505494152244971E-03
               4.2147367673518212E-04
              -4.5616938617327037E-04
               8.0530899651890878E-03
               1.7034839947011303E-03
               5.0441949375605397E-03
              -4.0663903016119871E-04
              -1.9472437553005354E-03
               1.2053794360922432E-03
              -7.8391930819973114E-04
               6.5758326364146625E-03
              -7.6255981025168361E-03
              -3.0594875014655406E-03
               5.5415188082748087E-03
              -5.9176256479223817E-03
               6.8239762918222743E-04
              -4.7718518547657032E-03
              -2.6588397689781365E-03
              -2.9093020368511778E-03
               3.9225959453471800E-03
              -1.8527446038057982E-03
               1.9134195029699144E-03
               9.1695758221824932E-03
              -2.8719077112042447E-03
         &END THERMOSTAT_ENERGY
         &RNG_INIT
Wiener process for Thermostat # 1        1 F T T  -1.5505429657892764E+00         661802595.0        2026459976.0        3136775027.0        3268219721.0        1056216878.0        3744216088.0             12345.0             12345.0             12345.0             12345.0             12345.0             12345.0             12345.0             12345.0             12345.0             12345.0             12345.0             12345.0
Wiener process for Thermostat # 2        1 F T T   1.5766939834860993E-01        2521559082.0        1979391111.0        3972826820.0        2839528192.0        3960449033.0        3051881342.0        3692455944.0        1366884236.0        2968912127.0         335948734.0        4161675175.0         475798818.0        3692455944.0        1366884236.0        2968912127.0         335948734.0        4161675175.0         475798818.0
Wiener process for Thermostat # 3        1 F T T  -1.6802103653762466E+00        2464096834.0        3454226368.0         668358963.0        3607867155.0        2139338144.0        1695442074.0        1015873554.0        1310354410.0        2249465273.0         994084013.0        2912484720.0        3876682925.0        1015873554.0        1310354410.0        2249465273.0         994084013.0        2912484720.0        3876682925.0
Wiener process for Thermostat # 4        1 F T T  -9.2120442907176847E-01        3007810664.0         626544053.0           5688727.0        2019501767.0        4050809287.0        2188826537.0        2338701263.0        1119171942.0        2570676563.0         317077452.0        3194180850.0         618832124.0        2338701263.0        1119171942.0        2570676563.0         317077452.0        3194180850.0         618832124.0
Wiener process for Thermostat # 5        1 F T T   1.9586792436148486E+00        3119398129.0        2238966874.0        1731687009.0        1729823850.0        3912388439.0         182524877.0        1597262096.0        3906379055.0        3312112953.0        1016013135.0        4099474108.0         275305423.0        1597262096.0        3906379055.0        3312112953.0        1016013135.0        4099474108.0         275305423.0
Wiener process for Thermostat # 6        1 F T T  -2.2012851380256623E-01         527820745.0        2447393615.0         338698828.0         653439858.0         976211817.0        3944196308.0          97147054.0        3131372450.0         829345164.0        3691032523.0        3006063034.0        4259826321.0          97147054.0        3131372450.0         829345164.0        3691032523.0        3006063034.0        4259826321.0
Wiener process for Thermostat # 7        1 F T T  -1.2191095662093037E-02         167278661.0        2992638024.0        1197931920.0         124710794.0         889033703.0        2194094787.0         796079799.0        2105258207.0         955365076.0        2923159030.0        4116632677.0        3067683584.0         796079799.0        2105258207.0         955365076.0        2923159030.0        4116632677.0        3067683584.0
Wiener process for Thermostat # 8        1 F T T  -2.6373530393371375E-01        2923147749.0        3809475671.0         892364519.0        3114385888.0        3523415917.0        3402922821.0        3281794178.0        2616230133.0        1457051261.0        2762791137.0        2480527362.0        2282316169.0        3281794178.0        2616230133.0        1457051261.0        2762791137.0        2480527362.0        2282316169.0
Wiener process for Thermostat # 9        1 F T T  -1.2388913960989989E+00         276694386.0        3384434371.0        2194062143.0        3864498526.0        2498625561.0        4174179731.0        3777646647.0        1837464056.0        4204654757.0         664239048.0        4190510072.0        2959195122.0        3777646647.0        1837464056.0        4204654757.0         664239048.0        4190510072.0        2959195122.0
Wiener process for Thermostat # 10       1 F T T  -6.9271884074884071E-01         298842605.0        4183294382.0        3769908432.0        1623977651.0        3452521187.0         349927101.0        4215590817.0        3862461878.0        1087200967.0        1544910132.0         936383720.0        1611370123.0        4215590817.0        3862461878.0        1087200967.0        1544910132.0         936383720.0        1611370123.0
Wiener process for Thermostat # 11       1 F T T  -3.9199517781213300E-01        1183014876.0        2469777470.0        2706060047.0        1374668043.0         490283634.0         131761905.0        1683636369.0         362165168.0         814316280.0         869382050.0         980203903.0        2062101717.0        1683636369.0         362165168.0         814316280.0         869382050.0         980203903.0        2062101717.0
Wiener process for Thermostat # 12       1 F T T   1.2248374085476998E+00         744312290.0        1838623065.0        1895433531.0        2930723882.0        3034111406.0        1223209339.0         272317999.0         166758548.0         310112982.0         201045826.0        1680231254.0         118290799.0         272317999.0         166758548.0         310112982.0         201045826.0        1680231254.0         118290799.0
Wiener process for Thermostat # 13       1 F T T   1.6053528300026945E-02         341235087.0         365462780.0         607175623.0        3292057964.0        1611524565.0         256574977.0        2245755202.0        1652682525.0        2865544364.0         721509566.0         209733568.0         592362218.0        2245755202.0        1652682525.0        2865544364.0         721509566.0         209733568.0         592362218.0