 # Version information for this restart file 
 # current date 2024-11-21 19:28:57.180
 # current working dir /scratch/work/courses/CHEM-GA-2671-2024fa/students/zz10074/comp-lab-class-2024/Week12-IntroAIMD/Runs_Proton
 # Program compiled at                              Sat Dec 12 18:27:15 EST 2020
 # Program compiled on                                         cs001.nyu.cluster
 # Program compiled for                                                nyu-intel
 # Source code revision number                                       git:8c64c6e
 &GLOBAL
   PRINT_LEVEL  LOW
   PROJECT_NAME proton_aimd_1ns_every0.5fs
   RUN_TYPE  MD
   WALLTIME 21600
 &END GLOBAL
 &MOTION
   &GEO_OPT
     OPTIMIZER  BFGS
     MAX_ITER  100
     MAX_DR     3.0000000000000001E-03
     &BFGS
     &END BFGS
   &END GEO_OPT
   &MD
     ENSEMBLE  NVT
     STEPS  2000
     TIMESTEP     4.9999999999999994E-01
     STEP_START_VAL  1998
     TIME_START_VAL     9.9899999999998238E+02
     ECONS_START_VAL    -1.1027999833048329E+03
     TEMPERATURE     3.0000000000000000E+02
     &THERMOSTAT
       TYPE  GLE
       REGION  MASSIVE
       &GLE
         NDIM  5
         A_SCALE     1.0000000000000000E+00
         A_LIST     1.8595758612559999E+02    2.7263853498399998E-01    1.1526100454610001E+01   -3.6414578262600003E+01 \
             2.3173375816020001E+02
         A_LIST    -2.7809524712060002E-01    8.5951591808710006E-05    7.2189048017650004E-01   -1.9844539343859999E-01 \
             4.2409257583420001E-01
         A_LIST    -1.4825808131210000E+01   -7.2189048017650004E-01    1.3590902121280000E+00    5.1498896280349999E+00 \
            -9.9949268450990001E+00
         A_LIST    -1.0372189126880000E+01    1.9844539343859999E-01   -5.1498896280349999E+00    2.6661910891169999E+01 \
             1.1507715495310000E+01
         A_LIST     2.1801346360420001E+02   -4.2409257583420001E-01    9.9949268450990001E+00   -1.1507715495310000E+01 \
             3.0958394565589998E+02
         &THERMOSTAT_ENERGY
               1.1283208616914900E-03
               4.0253633556694953E-03
              -1.0778333548880313E-03
               1.5603833597099799E-03
              -1.0536673358333803E-02
              -9.1816281421771510E-04
              -7.2664145249876659E-03
              -2.0476892437393593E-04
               1.0694070305913263E-02
               2.1096275322694952E-03
               1.1041561199691831E-02
              -1.4800123413246150E-03
              -7.5028265407550854E-03
               1.1056127631610525E-03
               2.4670621210516777E-03
              -9.4102135512712879E-03
               8.8625636202398338E-03
              -8.2199526291475023E-03
               2.2665656230451414E-04
               4.6699587064743401E-03
               5.9898293856377148E-04
               1.2942430809570851E-02
              -5.4605913853376167E-03
              -3.5813053820747962E-03
              -2.5087812437143203E-03
              -9.5149943871344726E-03
              -1.7965499928428831E-03
              -6.9050108978295683E-04
               5.0244539331804200E-04
               4.8536639956828775E-03
              -6.0295330944416196E-03
              -2.4260685418345789E-03
               8.3932304051018633E-03
              -3.7590740273345056E-03
              -1.9631416079039653E-03
               9.4850877225884263E-03
               3.3029282971899498E-03
              -6.7814264666027921E-03
               3.7678539504755015E-04
               2.3498363827811949E-03
               1.0344767634999039E-02
              -1.4182658358817948E-02
               5.6172789009229550E-03
               7.0769272696262304E-03
              -6.5028147565537062E-04
               4.3193128733603125E-03
              -7.5579164622043855E-03
              -1.7881036140132448E-04
               6.6891485000403440E-03
               4.5352592679643944E-03
              -1.8260567840321126E-03
               3.7366937015754953E-03
              -1.1145755249938964E-02
              -8.2764394145947631E-03
              -8.9172223659198732E-03
               6.4445572018861945E-03
               1.4417924465726143E-03
              -2.2037475931262606E-03
               4.7555071682048120E-03
               5.7732586159036908E-03
              -8.1451685357515125E-04
              -3.0584180856510243E-03
               1.6278547734036853E-02
              -2.3799555656021203E-03
               4.4857139489897259E-03
               5.4730504310362416E-03
              -3.5319958769687750E-03
               4.9222735200308756E-03
               5.8401395353513061E-03
              -3.4774436283237752E-03
              -1.2251154805187802E-02
              -4.7080739208697339E-03
              -1.0833870274971713E-03
               1.8915337366943203E-03
              -5.5341125269399933E-03
              -4.7497333999752950E-03
               8.5512371019471241E-03
              -8.9767304461134956E-03
               1.0677345028104263E-02
              -8.8373759189960019E-04
               4.8609272256206837E-03
              -5.1381592474978024E-03
               3.9608522411703625E-04
              -1.7227404152568988E-04
               1.3466285091481182E-02
              -5.3357280820322955E-03
               3.5668859282890519E-04
               2.9606537499239386E-03
              -3.3758531083410422E-04
              -5.5717751192325832E-03
               2.4363807073795457E-03
              -1.2923606875265496E-02
               4.2472076545875754E-03
              -5.0703653464895353E-03
              -3.1896719515107966E-03
               9.1613090226898251E-03
               1.0661362536672051E-02
              -1.0712024554474828E-04
               6.7067552190524385E-03
               4.7408104559141916E-03
              -5.4372447288707042E-03
              -1.5088694814842036E-03
               8.1235220061002759E-03
              -1.5299603930140635E-03
               3.0617659770713142E-03
               1.0013999956543533E-02
               6.9730482730107710E-03
              -4.9783124897806617E-03
               5.7964697994355085E-03
               1.8075985446384951E-04
               1.9002186432564702E-03
               4.1481582188581771E-03
               1.8112537914270442E-03
               1.1645906232955772E-02
               5.5301689181738263E-03
              -4.4165481081530119E-03
              -4.6055437600566644E-03
               8.0022779178335612E-03
              -4.0405308704545735E-03
              -6.3218071072985473E-03
              -2.0452867108201127E-03
               2.9508248438935361E-03
               6.2011779114252569E-03
               4.2905462975630169E-03
              -8.8882087467558862E-03
              -3.0818465690597434E-03
               3.7030037241104199E-03
              -4.7179304929334722E-03
               6.9320034290524185E-03
              -4.8080787780342797E-03
               2.7518854478611357E-03
               1.1965049118456594E-02
              -4.8070709292455062E-03
               1.8991814198590286E-03
              -4.6691356394914698E-03
               2.8815909002305562E-03
               8.3088588528012477E-04
              -8.4278118066082527E-03
               9.8947420680752201E-04
              -3.4068758794784815E-03
               6.5408417173127113E-03
               7.1118982499687594E-03
               3.9468864130282810E-03
              -5.7953329089694772E-03
              -5.9678403188742025E-03
              -4.9224738296571482E-04
               1.1714984608853455E-02
               3.0428355918790647E-03
              -2.0114428572235118E-03
               6.3042580347504717E-03
              -1.5362375881220806E-02
               6.9267283923776417E-03
              -1.9953375690424033E-03
              -1.1689785474486697E-03
               6.0243043876326424E-03
               2.2085319262364631E-03
               5.0272234029984900E-04
              -3.4263037991108416E-03
              -8.8912177911627446E-03
               6.3643508295806598E-03
               3.4932597152662476E-03
              -4.1185309502090621E-03
              -4.6777836820667109E-03
               2.0659202490053924E-03
               1.2329699393380477E-02
               6.8390295948070308E-03
               5.0669528635937239E-03
              -1.8090963496555555E-02
              -6.5621881698552282E-04
              -1.6613349679851682E-04
              -4.4252619026799254E-03
              -1.2915882902538405E-03
               2.3532906064556557E-03
              -4.6442405246791881E-03
              -6.6901232722833799E-03
              -2.4105634675175617E-03
               7.9505800254242968E-03
               4.8650129170871468E-03
              -4.6539709884736314E-03
               3.4266985050273153E-03
               1.2187938664978597E-03
               1.6706894385040274E-02
               3.0914042793358968E-02
              -6.9248856729012230E-03
              -2.5759917948551544E-04
              -8.7279478042862828E-04
               1.0312250923445111E-02
              -1.0321242946980276E-03
              -9.9336323746162542E-03
              -1.3734160569045405E-03
              -3.3976506776368484E-03
               2.0357463692198481E-04
               4.7902108853070747E-03
              -4.8204006524657988E-04
               6.3139822205977966E-04
               1.0328729451467891E-02
              -4.1112825723142819E-03
              -3.0210989844153867E-03
              -1.1996186180394663E-02
               2.0380258489278214E-03
               3.9765177360993869E-03
               5.0544601860266943E-03
               2.6860697341341919E-03
               6.4942136909085834E-03
              -8.6277134308898867E-03
              -1.1058322650162662E-02
               1.0594424087413956E-02
               5.7396424303509915E-03
              -8.7307021683891619E-03
               5.7968666374455325E-03
              -2.2239570704248425E-03
               5.0301023591346153E-05
               1.7056649595878618E-03
               9.4235988118283667E-03
              -1.2992609195818133E-03
               2.0464988694812187E-03
              -6.6764367467627497E-03
               8.3349550102719220E-03
              -4.4077770214427580E-03
               3.8198434160914793E-03
               1.0212520817639895E-03
              -3.6939564763382457E-03
              -1.6487525037948803E-02
               1.2180669758048072E-02
               1.0163071131668150E-02
              -5.2613601476696921E-03
              -6.1412717808159642E-03
               6.4522571060708829E-04
               2.7807568906854929E-03
               2.4031304430553102E-03
              -7.4437068202026484E-03
               3.9192954023392857E-03
               1.0759713618136685E-02
               1.5251213341213052E-03
              -2.1980016766004985E-03
              -2.8302584107981177E-03
              -5.4016228125795922E-03
               1.8400146754173033E-03
              -3.2466932913107860E-03
              -2.4808670425542092E-03
               7.8542228203223353E-03
               8.9616478951400000E-03
              -1.2184042617792612E-03
               1.7710071813982944E-03
              -4.6104899874479096E-03
              -1.0258766555785647E-03
              -8.8232564245960005E-06
               6.9617045705280172E-04
              -3.0143613253966217E-03
              -5.5642374324536021E-03
               1.5110753413342559E-02
              -3.8482219893045595E-03
              -1.1441217409921909E-02
              -4.7095517759504534E-03
               4.8561998035901565E-03
              -5.0769215179680936E-03
               1.4953431598613307E-03
               1.0904322371918750E-03
              -6.7692746232967506E-03
              -2.9446624840131822E-03
               6.8726931840017037E-03
               7.2047345029030031E-03
               5.9264346161724416E-03
              -6.2988806860428143E-03
               6.8106188274953093E-03
              -7.4710490122142014E-03
              -9.3973804573955816E-04
               5.9798603697104541E-03
              -2.1010788789258997E-03
               3.1097253647429605E-03
               9.0706542204492552E-03
              -1.3615345991976120E-02
               9.2543578449163326E-03
               8.5799872872460888E-03
               2.2856570007091879E-03
               8.3090357052100741E-04
              -1.8658765601205461E-02
               1.5437969482611759E-02
              -3.6996167728904515E-03
               5.1694203221248798E-03
              -1.7813572483987593E-02
              -6.4073646959063061E-03
              -3.6176083731337128E-03
              -8.7980372002277357E-04
              -3.9834054703023498E-03
              -4.4251184748005830E-03
              -5.1477093886233977E-04
              -4.3013293682567259E-03
               2.1354233821742480E-03
               2.6402655843502116E-03
               8.2930359160084330E-03
              -2.8869738580358534E-03
              -4.1388689986526458E-04
              -3.1909254207908135E-03
              -4.6554132698757543E-03
               8.6649705772101973E-03
              -1.8032541085509313E-03
               2.1295668114854564E-02
              -3.7423901401641242E-03
              -6.9203800460510174E-03
               1.8740954984252146E-03
              -3.1951595998796598E-03
               6.3256693099750169E-03
               1.4514317865960368E-02
               4.7856617402326773E-03
              -1.1127122986846960E-02
               6.0994990178093777E-03
               8.7059574295539725E-03
              -3.9031615624134132E-03
               1.1457608814209765E-02
               2.3073896678844907E-03
              -3.3603247382788422E-03
              -1.5535714109479546E-03
               2.1440932281114136E-03
              -1.8212166189796239E-03
               2.5286283566495983E-04
              -4.1409309331984223E-03
               1.2005315971430240E-04
              -1.5999400435564477E-02
              -3.3160115709919636E-03
               4.0072804180024176E-03
               1.9438714857354009E-03
               7.1424489695812365E-03
               3.5821731459388596E-03
              -7.3120157750555855E-03
               1.7638315265485434E-02
               1.1695012435108327E-03
               2.7000171697670727E-03
              -3.6240356280378770E-04
               7.5380190832199691E-03
              -1.3954740205116070E-02
               3.2541307701403586E-03
               2.9057030781745770E-03
              -3.5229090028436882E-03
               5.0467527276609062E-03
              -2.9573354586672693E-03
               1.2398159435953117E-03
               2.3778103513634290E-03
               5.4377561889736234E-03
               1.6958447351740819E-03
              -5.6669650225162948E-03
              -3.5451998027554868E-03
               2.8456736782513092E-03
               1.7005083516533331E-02
              -6.6707607642685985E-03
               4.5063029385798252E-03
               6.9918207037328439E-03
              -1.3555307896622532E-02
               6.6979022011720516E-03
              -1.6002090305617129E-03
               1.3362981910166848E-04
               4.7380110687949388E-03
              -9.2595388691394907E-03
               9.6634923259250240E-03
              -2.3563630872180412E-03
              -2.1920788361595358E-03
               6.9545571377685883E-03
              -3.5780603422011855E-03
              -1.5007649634835078E-02
               3.3980510337059001E-03
               5.7056797383644878E-04
              -7.6954475237197596E-03
               1.9925853054934814E-02
               2.4698869103636943E-03
              -1.5466029166510621E-03
              -3.3243538298469667E-03
               1.2806650313360611E-02
              -4.3494309047997573E-03
              -1.0699280195148774E-02
              -5.3058550340655602E-03
               7.9054471941247470E-03
               5.1089893515869128E-03
               3.1442472998066190E-03
              -7.1293594053236419E-03
               2.9575912771162682E-03
               4.0996901186188418E-03
              -1.4081661820460304E-02
              -1.4818860376877876E-02
               2.0244207242061897E-03
               8.3207174837059018E-03
               3.0160279815379821E-03
               3.5460642275480557E-03
              -2.1873865757867194E-03
              -2.5482530928619368E-03
              -7.0060605347831272E-03
              -9.5286356003901600E-03
               1.0217728429743736E-02
               1.1253612427764129E-02
               1.2186364890564181E-02
              -1.1200605247122037E-02
              -5.2691759190494399E-03
               7.5388178040831618E-03
               1.0567991105379154E-03
              -5.5030853590899726E-03
               1.1582667647119942E-02
              -8.2170460434771633E-04
               4.6734257444106531E-03
              -9.2923863505444872E-03
              -1.5174952713409911E-03
              -9.5758343379815107E-04
               2.0806288588365203E-03
               1.2653196179612989E-03
              -1.2338313595551833E-03
              -1.6314389399005769E-03
               4.9950623426810196E-03
              -9.7957948670891193E-03
               1.4520857436337546E-04
               7.7179230143818185E-03
              -6.1355371494616765E-03
              -3.1888937592990303E-03
               2.2525102324059444E-03
               1.1836671396867765E-04
              -5.1904770473030328E-03
               1.5691601955962315E-03
               3.3966011902848365E-03
               3.7414312892416748E-03
               4.0502983649555605E-03
              -2.3479895513290583E-04
              -1.2614273906998131E-03
               9.0181200682846639E-04
              -2.4348363701035213E-03
               8.0237472898283084E-03
              -2.7471277673107937E-03
              -9.7829427106582451E-03
               8.5361107351323504E-03
              -3.4579435741333561E-03
              -2.3252064427721447E-03
              -5.9782094158835142E-03
               2.9293938739293911E-04
              -8.6136059098946140E-04
              -1.2318194634928178E-03
              -7.0412370711289514E-03
              -1.9763225474735118E-02
               1.6263704582358051E-02
               1.4506035249984882E-02
               5.3060239007291007E-03
              -8.5159672419835488E-03
              -1.1614854662292977E-03
              -6.9945180134804094E-03
              -6.6412092516197436E-03
               3.6586964342874180E-03
               8.0269400874283595E-04
              -1.9884432811944257E-03
               7.8097050169984045E-03
               3.8586610979778001E-03
               9.5225308554209541E-03
               1.9002586063184871E-03
               1.4319566231781882E-02
               1.0420718205487088E-02
              -9.6603629356773416E-03
              -2.0654462245992293E-03
              -1.2337105020039598E-02
               1.0796878518859538E-02
               1.4341456906921395E-03
               2.4892322904718758E-03
              -3.8548289952087468E-03
              -1.4823254743543273E-02
              -2.1091456372956303E-02
               1.3078411458020821E-02
              -3.7361043064580131E-03
               1.7586200046690027E-02
               1.0056440195084788E-02
              -5.2752495102081094E-03
               6.2327129859693804E-03
               4.6544940472568888E-03
              -1.6267378853780575E-04
              -1.4503436613911494E-02
               3.2994223880707355E-03
               8.7750974122147371E-03
              -3.6714811656696606E-03
              -1.9289692754759476E-03
              -4.8375119481547310E-03
               3.2638808410114305E-03
              -4.0615582967049263E-04
              -2.0513624359235960E-03
               5.4879817258830831E-03
              -9.4950729112599754E-05
               2.3498600764275991E-03
               2.7481053794950897E-03
              -2.3316584894936517E-03
              -1.0282382022478731E-03
              -2.7351768408677372E-03
               7.6254293637179858E-03
               4.5729444588641574E-03
              -2.6679820435136945E-03
              -3.0568908935982579E-03
              -8.3438870169847239E-03
               3.4441483086345825E-04
               9.5204563834143923E-03
               3.4684578778533173E-03
               7.6800437793144265E-03
               5.0301025106589169E-03
               1.8153584983112730E-02
              -8.5922569260518424E-03
              -5.9808093275517714E-03
              -5.1285020004563520E-03
               5.2376564585261470E-03
              -3.6940899491025121E-03
               4.6854935078794640E-03
               6.9796240288603102E-03
               4.4668965146451431E-03
               7.2367521620921617E-03
              -1.8193348577068880E-02
               1.2840914960657491E-02
               4.8104723251485779E-03
              -1.2013874074508884E-02
              -4.9607052225041810E-03
               7.3446111138635835E-03
               8.2638555442388992E-03
               2.6359535912600924E-03
              -3.5818296835957767E-03
               1.3379634565498746E-02
              -4.7592700851802894E-03
              -4.0599606689639377E-03
               3.1717973325947539E-03
              -1.7788902942106010E-02
              -3.4814555333452452E-03
               6.5812395373072491E-03
               1.2837607263160953E-03
               3.5932235334309457E-03
              -1.7616809197989757E-02
              -1.5897272477746740E-03
               1.3567453237728039E-02
              -2.9855179278776272E-03
              -2.8118286232046768E-04
               6.7261620047522432E-04
              -2.2730732837945682E-03
              -1.7850309051283683E-03
               8.9638070595158634E-03
              -6.1741747089100567E-03
               5.1782495069906849E-03
               5.3064628928594848E-03
              -1.1031441163317286E-02
              -4.9110990332406537E-03
               7.9257127531184358E-04
              -1.5355043554469404E-03
              -1.3038650171154037E-03
              -6.1568972161699966E-03
              -5.7131312989034417E-03
               1.2324759810292586E-02
               6.6081568896565772E-03
              -1.6307936038312202E-03
              -2.3306936755758791E-03
               3.8861635784268609E-04
               7.0994772712089276E-03
              -1.0679693404906951E-02
               6.8314189071306064E-03
               1.5560807880212228E-04
               6.1428700538752965E-03
               1.2810055441224502E-03
              -5.4214447024294532E-03
              -6.1365935514377671E-03
              -2.5035951434465666E-03
              -4.4624125284012627E-03
               2.4680207827294069E-03
              -9.2563761639527248E-04
              -3.1791384041293474E-03
              -3.6869556807141730E-03
               1.2519521079940043E-02
              -8.8722180608084996E-04
              -2.1601861418446100E-03
               3.0845933461124994E-03
              -1.0960380285063968E-03
               5.7716663725905226E-03
              -5.8636923914284662E-03
              -7.1915946707947400E-03
               3.5350451021906614E-03
              -4.5730958574679466E-03
               1.2301823856290211E-03
               8.7154831102727076E-04
              -5.1133606475072943E-03
              -4.6514700287942322E-03
              -6.8447234045237787E-03
              -3.4649497989388345E-03
               2.4757031016647518E-03
               1.2603291631687025E-02
               1.4680700014856236E-02
               2.8598215432530821E-03
              -5.7642839636814925E-03
         &END THERMOSTAT_ENERGY
         &RNG_INIT
Wiener process for Thermostat # 1        1 F T T  -1.5601997779545997E+00        4027757407.0        1559045809.0        3403552754.0        1703120254.0         453778739.0        2861026355.0             12345.0             12345.0             12345.0             12345.0             12345.0             12345.0             12345.0             12345.0             12345.0             12345.0             12345.0             12345.0
Wiener process for Thermostat # 2        1 F T T  -4.0112764818655514E-02        3838101567.0        1430396723.0        1556923290.0        2889325561.0         607612135.0        3761282217.0        3692455944.0        1366884236.0        2968912127.0         335948734.0        4161675175.0         475798818.0        3692455944.0        1366884236.0        2968912127.0         335948734.0        4161675175.0         475798818.0
Wiener process for Thermostat # 3        1 F T T  -2.7485675335982579E-01         482699311.0        2506409672.0        1202736307.0        1073196783.0        1141297417.0        2856513754.0        1015873554.0        1310354410.0        2249465273.0         994084013.0        2912484720.0        3876682925.0        1015873554.0        1310354410.0        2249465273.0         994084013.0        2912484720.0        3876682925.0
Wiener process for Thermostat # 4        1 F T T  -9.8957058820594379E-01        3129827523.0        3549124345.0        1353678049.0        1344233659.0        2578763699.0        1106953444.0        2338701263.0        1119171942.0        2570676563.0         317077452.0        3194180850.0         618832124.0        2338701263.0        1119171942.0        2570676563.0         317077452.0        3194180850.0         618832124.0
Wiener process for Thermostat # 5        1 F T T   8.1743834600370391E-01         587879607.0         702838090.0         820286405.0        1159088393.0        1840431053.0        2379049004.0        1597262096.0        3906379055.0        3312112953.0        1016013135.0        4099474108.0         275305423.0        1597262096.0        3906379055.0        3312112953.0        1016013135.0        4099474108.0         275305423.0
Wiener process for Thermostat # 6        1 F T T  -4.6635220676026440E-01        1255338812.0        2941627828.0        2767710176.0        1701464963.0        2824905014.0        2257709657.0          97147054.0        3131372450.0         829345164.0        3691032523.0        3006063034.0        4259826321.0          97147054.0        3131372450.0         829345164.0        3691032523.0        3006063034.0        4259826321.0
Wiener process for Thermostat # 7        1 F T T  -2.7221417990508723E-01        2928923925.0        1475590831.0        3028549759.0        1729569924.0         123262326.0        1965188850.0         796079799.0        2105258207.0         955365076.0        2923159030.0        4116632677.0        3067683584.0         796079799.0        2105258207.0         955365076.0        2923159030.0        4116632677.0        3067683584.0
Wiener process for Thermostat # 8        1 F T T  -1.3371509559371584E+00        3293786404.0        2324351260.0        4224364702.0        1341956089.0         912321799.0        2697559406.0        3281794178.0        2616230133.0        1457051261.0        2762791137.0        2480527362.0        2282316169.0        3281794178.0        2616230133.0        1457051261.0        2762791137.0        2480527362.0        2282316169.0
Wiener process for Thermostat # 9        1 F T T  -8.7225140957356684E-01         657961678.0        1513147170.0        2219186603.0        4111646695.0         616753226.0        2747528653.0        3777646647.0        1837464056.0        4204654757.0         664239048.0        4190510072.0        2959195122.0        3777646647.0        1837464056.0        4204654757.0         664239048.0        4190510072.0        2959195122.0
Wiener process for Thermostat # 10       1 F T T  -6.2889449580622436E-01          96284293.0        2446379684.0        3801610533.0        2961863039.0        1877110468.0         129512113.0        4215590817.0        3862461878.0        1087200967.0        1544910132.0         936383720.0        1611370123.0        4215590817.0        3862461878.0        1087200967.0        1544910132.0         936383720.0        1611370123.0
Wiener process for Thermostat # 11       1 F T T   5.7191327297384098E-01         909895394.0        1862319182.0        2400367466.0        1201802882.0        2818881371.0          83822050.0        1683636369.0         362165168.0         814316280.0         869382050.0         980203903.0        2062101717.0        1683636369.0         362165168.0         814316280.0         869382050.0         980203903.0        2062101717.0
Wiener process for Thermostat # 12       1 F T T  -2.0098512161557830E-01        4281566709.0        2729512869.0         275332126.0         437149450.0        1041778670.0        1778805263.0         272317999.0         166758548.0         310112982.0         201045826.0        1680231254.0         118290799.0         272317999.0         166758548.0         310112982.0         201045826.0        1680231254.0         118290799.0
Wiener process for Thermostat # 13       1 F T T   9.4560796151122029E-01        3557498645.0        2583014714.0        2425630516.0         920535172.0        3770643442.0         978988578.0        2245755202.0        1652682525.0        2865544364.0         721509566.0         209733568.0         592362218.0        2245755202.0        1652682525.0        2865544364.0         721509566.0         209733568.0         592362218.0