 # Version information for this restart file 
 # current date 2024-11-21 20:38:50.794
 # current working dir /scratch/work/courses/CHEM-GA-2671-2024fa/students/zz10074/comp-lab-class-2024/Week12-IntroAIMD/Runs_Water
 # Program compiled at                              Sat Dec 12 18:27:15 EST 2020
 # Program compiled on                                         cs001.nyu.cluster
 # Program compiled for                                                nyu-intel
 # Source code revision number                                       git:8c64c6e
 &GLOBAL
   PRINT_LEVEL  LOW
   PROJECT_NAME water_aimd_1ns_every0.5fs
   RUN_TYPE  MD
   WALLTIME 21600
 &END GLOBAL
 &MOTION
   &GEO_OPT
     OPTIMIZER  BFGS
     MAX_ITER  100
     MAX_DR     3.0000000000000001E-03
     &BFGS
     &END BFGS
   &END GEO_OPT
   &MD
     ENSEMBLE  NVT
     STEPS  2000
     TIMESTEP     4.9999999999999994E-01
     STEP_START_VAL  156
     TIME_START_VAL     7.8000000000000057E+01
     ECONS_START_VAL    -1.1023558357480233E+03
     TEMPERATURE     3.0000000000000000E+02
     &THERMOSTAT
       TYPE  GLE
       REGION  MASSIVE
       &GLE
         NDIM  5
         A_SCALE     1.0000000000000000E+00
         A_LIST     1.8595758612559999E+02    2.7263853498399998E-01    1.1526100454610001E+01   -3.6414578262600003E+01 \
             2.3173375816020001E+02
         A_LIST    -2.7809524712060002E-01    8.5951591808710006E-05    7.2189048017650004E-01   -1.9844539343859999E-01 \
             4.2409257583420001E-01
         A_LIST    -1.4825808131210000E+01   -7.2189048017650004E-01    1.3590902121280000E+00    5.1498896280349999E+00 \
            -9.9949268450990001E+00
         A_LIST    -1.0372189126880000E+01    1.9844539343859999E-01   -5.1498896280349999E+00    2.6661910891169999E+01 \
             1.1507715495310000E+01
         A_LIST     2.1801346360420001E+02   -4.2409257583420001E-01    9.9949268450990001E+00   -1.1507715495310000E+01 \
             3.0958394565589998E+02
         &THERMOSTAT_ENERGY
              -1.1291050500328176E-03
               1.6755376898656880E-03
              -1.0341922529293262E-04
              -2.8013413587180134E-03
              -1.2224216234903731E-03
               3.3012424281992315E-03
              -2.5366557655661852E-03
               5.9649404159747735E-04
               4.4052612535102455E-03
              -3.2442097458187710E-03
               3.5539743196069478E-03
               9.7958123175356402E-04
               1.7061180649265571E-03
              -1.0839645474785310E-03
               6.8969932594886132E-04
              -1.5100503055456953E-03
               1.9342803925028627E-03
              -1.5281748200583639E-03
               2.1091269037573955E-03
              -8.3836727797435406E-04
              -1.0126266139697476E-03
               6.9517425495920588E-04
               2.3934088735990007E-04
               3.8346194759337144E-03
              -3.6673554920759383E-03
              -1.6851656289292856E-03
               4.1075242549128751E-03
               7.8118279740820495E-04
               5.7316707735967246E-04
               3.6039124215043116E-04
              -4.9728325375152072E-04
              -2.2851218293163753E-03
              -5.9519969696000786E-04
               2.0219573512740762E-03
              -2.9893463150402707E-03
               3.8020526233669086E-03
               2.4014059609124146E-04
               2.2879638898332978E-04
              -7.2413321499042028E-04
               2.0224124222806947E-03
               5.2098703992948213E-04
              -1.8735321971037754E-03
              -5.2814217275079533E-04
               2.0645163407660072E-03
              -2.0498696608365324E-03
               1.4216450325537553E-03
              -6.9592013895454735E-04
              -3.2935492760791368E-04
              -1.1239574227405601E-03
              -8.3091035851442163E-04
               2.3365554455493471E-03
               2.2010238029712047E-04
               2.6365884488813750E-06
              -1.9160225328696400E-03
              -2.2931393172506455E-03
              -6.9990394451644703E-04
              -8.3783554239036785E-04
               1.0399450531917997E-03
               2.6159191161635922E-03
              -3.3806591222033003E-03
              -3.2766894632068830E-05
               3.4338237621092940E-03
              -9.9247019525881830E-04
              -1.6750820643572458E-04
              -4.8301074509167523E-04
               1.1121463563028475E-03
              -4.2229206605971306E-03
               1.9474350788612821E-03
              -1.5730502912135399E-03
               9.4944888836404431E-04
               2.2491242200473509E-03
              -3.3064458887981367E-04
              -1.9674168917588079E-03
              -9.7505400131234470E-05
              -1.4997765791285121E-04
              -1.8240458934046426E-03
               4.9475390892668610E-04
               2.9842951269203237E-03
               4.0948210475206569E-03
              -1.8633495885647248E-03
              -7.0120764852952774E-04
              -1.8681556148087508E-03
              -3.0213338835879838E-03
              -4.8831407087995794E-04
               2.7789071021270821E-03
              -8.2164012990531226E-05
               6.6662687142743826E-04
               1.8178021573829466E-03
               4.7267821150716966E-04
              -2.1056140423432860E-03
               3.0367307655679620E-03
              -1.8115895800783375E-03
               6.1774097199287961E-04
              -1.7625863147115129E-04
              -4.0028100337704455E-03
              -1.1794878440886244E-03
               3.6277339556064749E-04
              -3.5454519106779409E-03
               1.9872137783472714E-03
               1.3614553503176223E-03
              -1.7695086119683427E-04
              -1.6577641381544204E-03
               5.2494827773681213E-05
               6.5730604186291328E-04
               3.6878959504030159E-03
              -2.6375856352526430E-03
              -1.0621160245807594E-03
              -1.0595360235852601E-03
               3.2452248974036077E-03
              -8.4727640072036477E-04
               4.7273267774686437E-03
               5.5865308596075370E-04
              -9.4720490689013340E-04
               4.0715956449115942E-04
               1.3104136337153022E-04
               3.7644103910927729E-03
              -9.1512410618269768E-03
               1.4004706538704311E-03
               5.7240947970059962E-04
               1.1133403797901121E-03
              -1.2382307716126957E-05
               5.5628779871759481E-04
               4.2850215853564803E-03
               2.1769378016480993E-05
              -3.5219219807263715E-03
              -8.8522527019119245E-04
               1.4078371765815874E-03
               3.6112045663900011E-03
               1.8851292767546309E-04
               1.9607488906325317E-03
              -1.6263141946568716E-03
              -1.9845320353590354E-03
              -1.2334105052265170E-03
              -1.8352006555851061E-03
              -1.3256834829087022E-03
              -2.7430838483554539E-04
              -7.5499808782837196E-04
              -1.7917941486850220E-03
               8.0955912291533346E-05
               1.3902854750721878E-03
               2.6640689856539065E-03
               1.8802228748022983E-03
               6.1680809387439875E-04
               4.2597439973808760E-04
              -2.1905508217541199E-03
               9.4893101102262929E-04
               1.6086613395585425E-03
               3.3616999247306303E-04
              -2.2018402362486761E-03
               3.2809173166109245E-03
               6.2351358592398285E-04
               1.5129337122270158E-03
              -2.0177024820564045E-03
               2.1603724028391660E-05
               4.3540300109796070E-04
               9.3309001823893567E-04
               5.0224627992629224E-04
              -1.5354853490199324E-04
              -1.8933457003647584E-03
               1.2324598714800353E-03
              -2.1329042730012307E-03
              -4.0446647203871465E-03
              -1.3092461985599554E-03
               3.5977207611740785E-04
               1.9826771818450034E-03
               4.0318590808811434E-03
               3.8691202196735404E-03
               4.9344338283131596E-05
              -5.5332573545521990E-03
               1.0674753051436781E-03
              -3.3317508426130058E-04
               1.1219479151604074E-04
               1.4570262147948819E-03
              -3.4495455607010692E-04
               8.2809053637753730E-04
              -2.0255420606195532E-03
               5.3042031032740199E-04
               1.4184342618044187E-03
               2.8819784793501421E-04
               2.0272025321420046E-03
              -1.1566917799303476E-04
              -5.1580649474712505E-04
               1.5716152213490987E-03
               5.3490441161814398E-04
              -1.8877819086835523E-03
               1.5032591862425566E-04
              -8.0201999707051215E-04
              -3.3085981180244501E-05
              -7.8034626400807724E-04
               1.6041910175893254E-03
               1.1850282835314694E-03
              -1.8579744598801952E-03
               3.4559889368415463E-03
              -3.4710240935020408E-03
               7.6570364741815951E-04
              -5.5785598565643831E-03
               8.4524795670793979E-04
              -1.5019340116290906E-04
              -4.5856957094187964E-04
              -9.7296151382789023E-04
               5.5976304685225744E-04
              -2.5757303241215172E-04
               1.2797909325431790E-03
               1.2429183876106291E-03
              -3.0529726835230152E-03
              -9.2244764445853982E-05
              -9.3748645989611638E-04
               1.7307184112269522E-03
              -2.2619829337640865E-03
               3.8993447678178834E-03
              -9.8490444255420681E-04
               1.6072900020303981E-04
               2.1128348945391034E-03
              -4.2309157830913366E-03
               2.3517779377943970E-03
               4.7703654867888856E-03
               2.7167867064658170E-04
               7.9433719521049186E-04
              -1.7857349108168332E-03
              -1.8277481616205630E-03
               3.9387589042922493E-03
              -1.7194587424373966E-03
               2.3396710695675260E-03
              -1.0793719336064345E-03
              -8.2581579888384832E-04
               3.7486617565622943E-04
               2.7897127779937723E-04
               7.7504940525247176E-04
              -6.2715645409270617E-04
               3.1185217180084916E-03
              -1.3478183312326088E-03
               2.6650779436833780E-03
              -9.6597723426691178E-04
               8.1143852212255336E-04
               3.1907523883919183E-03
               1.2017606756075578E-03
              -1.9917192994351142E-03
               2.7647070081661695E-03
              -9.4836534528572043E-04
               1.3492541983458581E-04
               6.9274507076653763E-04
              -1.3964022716609907E-03
               2.6934866402458326E-03
               7.0141333419043207E-04
               1.1485102350360177E-03
               8.5696131315101288E-04
              -1.2525552469352366E-04
               6.8001938902271890E-04
               6.4731036324595025E-04
              -3.0573847879032793E-03
               5.0253995264715374E-04
               2.6276202487982804E-03
              -6.2056636383550103E-04
               7.2704082327808143E-04
              -2.9513755307854382E-03
              -1.5123872737868873E-03
              -2.6642298550228227E-03
               1.0174747338909259E-04
               5.5781014330261961E-04
              -1.4654357213608716E-03
               3.1921469890641391E-03
               2.2236648988961660E-03
               1.2904035488920573E-03
               1.2820297171325951E-03
              -6.8048272744090335E-04
              -1.4953336854256298E-03
              -3.8571699315329688E-04
              -2.1809270463834339E-04
              -1.7030246369452739E-03
              -2.6051546962269109E-03
              -3.1948218520073514E-03
              -6.9038746164510668E-04
               1.3791912547370961E-03
              -1.6579482678201827E-03
               7.6548333314906309E-04
               1.3760099325183940E-03
              -4.9714569643395986E-03
              -3.8827031705214850E-04
               1.0564677926484193E-03
               1.2131136856312818E-03
               2.4807599410737796E-05
              -7.4015843628864094E-04
               2.9893404815069845E-03
               1.6385593039662100E-03
              -3.7827611875319296E-03
               4.9530467616227863E-04
              -3.7757814374497563E-03
              -1.1092338039985319E-03
              -2.5314495215499093E-04
               2.4722157074854310E-04
               3.2839674226332324E-04
               3.2635681940459483E-03
              -2.1729335267653138E-03
              -1.0016903693903362E-03
               1.5262807443786413E-03
               1.5503397014271064E-04
              -1.6913794010949745E-03
              -1.3850515204122599E-03
              -3.1446074865490010E-03
              -1.0728295558666540E-05
               1.8912821500457651E-03
               5.7893127799712259E-04
              -4.9305145152357399E-03
               1.5614756702467783E-03
               3.6043705974628183E-03
              -7.2201716968719814E-04
              -8.2575689325258927E-04
               2.2220561400422155E-04
              -1.3431229579483879E-03
               8.4855056815317381E-04
               1.0734717733607104E-03
              -4.6539749166795309E-03
               2.0976241339717059E-03
               1.7881556916969155E-03
               1.5986467735254728E-03
               2.0043499386704221E-03
               5.1291116295260823E-06
               4.9155700300302814E-03
               1.7831377284364203E-03
              -9.2085396960671253E-04
               1.2280539162788234E-03
              -1.5424456023034844E-03
              -4.1228778520460956E-03
               3.6664446603241023E-03
               3.9519916489517249E-04
               1.2904547098643597E-03
               4.8094118801323121E-04
               8.9510298317281188E-04
              -1.3476405183803508E-03
              -8.6627745468691143E-04
              -2.9763565096576840E-03
              -1.5502967187642016E-03
               7.9901698113095648E-04
               1.2643826042639090E-03
               1.2904741333213975E-03
               7.0033163600100344E-05
               3.7416773707898299E-03
               2.5317044696739600E-03
              -1.9643617379361141E-03
              -1.0633905023493188E-03
               2.2782215867590613E-04
               5.3691175419316142E-04
               3.1189765755490146E-03
               1.2630490253284117E-03
               6.8023949638430672E-05
              -5.1747160070512652E-04
              -2.0657177001755650E-03
              -1.3412727000626113E-03
              -4.5077081264954192E-04
              -5.6044769606791072E-04
              -1.6945810974247539E-03
               1.2576048433996965E-04
              -2.5494810482707786E-03
               1.8043846485002682E-04
              -6.9447956540275545E-04
               2.3405457982712379E-04
               3.5991889529873363E-03
              -1.5749182792809688E-03
              -3.4916225053849693E-04
               4.9123393325264768E-03
              -4.9415181048559679E-04
              -4.8070329118183360E-04
              -1.2616499492046414E-03
              -4.8645101681382252E-04
               1.1203762488051581E-03
              -8.5980393733792399E-04
               2.0890537194707573E-03
               1.0248303454385406E-03
               5.2959688523374320E-04
              -1.2441599205563604E-03
               3.3699449738569245E-03
              -1.7694620513809770E-03
               3.0356929905729474E-03
              -8.3122008799899289E-04
              -1.7116978156786916E-03
              -4.2002751856237150E-03
               1.7908921941296326E-03
               3.0735575272717642E-03
               1.3162430677271715E-03
              -2.6012035536927965E-04
               1.1294052555848489E-03
               1.9007526672928242E-03
               2.1452584667060975E-03
               1.5179074668021093E-03
              -7.8990980879249193E-03
               3.3466989221444545E-04
               5.2677635283427705E-04
              -4.2927583202297575E-03
               3.0426491536413643E-04
               1.2205620419462224E-03
               1.5033746032739959E-03
              -2.3983697276805296E-03
              -8.3413602280994238E-04
              -4.7886169472671838E-03
              -3.5585776461674818E-03
              -2.1653558680901712E-03
              -3.0173155916406740E-03
               1.6305803443743411E-03
               1.0807061393172724E-03
               7.5616657785364185E-04
              -4.9917815403064704E-03
               2.7837689225560744E-04
               7.5004663206511713E-04
              -1.1592781986866415E-03
               3.5911238383900452E-03
              -2.1830654076582896E-03
               2.0718614358025014E-04
               1.8064725515780371E-03
              -8.5673568080939407E-04
              -2.8757682955125184E-03
              -6.7666148314841662E-04
              -1.1850307903689204E-03
               9.6659984951843992E-04
               3.6839973511985694E-03
              -4.4061218027484049E-03
              -7.4182095294024952E-05
               2.1204919323742066E-04
              -2.6043927940605682E-03
              -4.1014275321736519E-03
               7.2803386273350484E-03
              -4.9716763730778539E-04
              -2.6245234803843323E-03
              -3.0926447037604408E-03
               2.5115146453432136E-03
              -1.0845453197529716E-03
              -2.2973971867959043E-03
              -1.4747114143537575E-03
              -4.2693181433223768E-03
               9.4672061879445390E-04
              -9.6822073374114716E-04
               1.3495008887925090E-03
              -5.1813428025074323E-03
               1.8789936348134165E-03
              -1.6244553116453733E-03
               1.2151983167247786E-03
              -1.7470617562882109E-03
              -8.6431715798404108E-04
               7.4858880352018790E-04
               4.9663556652835223E-03
               3.3509412996318220E-03
              -6.6705349011049898E-03
              -2.0336759214936192E-03
              -2.0027856774528252E-03
               1.0867650666110066E-03
               1.0592174967709871E-03
               2.6336321721283878E-03
              -5.9016833494390428E-04
              -3.6271074485449196E-03
              -2.3401543416770696E-04
               6.6010412265678589E-04
              -4.9902269816771050E-04
              -2.4070932951081054E-03
               8.8571257036467788E-04
               2.1227855887793090E-03
              -3.0609180416422297E-03
              -1.1302817187730063E-04
               7.2133262891536532E-03
               3.4129608004847571E-04
              -2.8174488450572088E-03
              -1.2238543192143777E-04
               3.1727310686351772E-03
              -1.2785755104021011E-03
              -1.8193201098150509E-04
              -2.5387055646925835E-03
               1.2318489471714576E-03
              -1.1375873778620754E-03
              -1.6761965828407006E-03
              -1.5883535006691078E-03
               7.6567725867386117E-04
              -4.3381844926042431E-05
              -2.2483689754268857E-04
               1.2957195424847441E-03
              -1.0718962928607926E-03
               2.7439110832969821E-03
              -1.2994469140073262E-04
               3.2415553936176308E-03
               1.9372138616471773E-03
               1.0041004404679214E-04
              -1.6806909655644992E-04
               8.6275823591033286E-04
               5.6533756645489397E-03
              -1.0291334728083947E-03
              -1.3968923169723067E-03
              -2.2806228956052223E-03
              -1.7812848057672547E-03
              -8.2973917034601758E-05
               9.2009477808582948E-05
              -1.9644626552066270E-03
              -5.9018362872206701E-04
               9.6570143561654535E-04
              -1.8483292855156269E-05
               6.9750778294933946E-04
              -1.7457199511100151E-03
               7.4546821757671619E-04
               2.8180948908402320E-03
               1.1752546974708208E-03
              -1.9039946051062698E-03
              -8.8038868122375586E-04
               1.4741623959095280E-04
              -2.9922930076319836E-03
               3.4818950792423948E-03
               3.2750730764871092E-04
               1.8502144480837485E-03
              -1.5678077718003524E-03
               3.4298992325521325E-04
              -1.7397015179847351E-03
               1.2101787801283837E-03
              -4.2701793852827064E-04
               1.8158399746347979E-03
              -7.1554205239261141E-04
               7.0549426466652403E-04
               5.4557477383205414E-03
              -4.0764629945513565E-03
               2.0438769836234943E-03
               3.2614980049122899E-04
               1.3946126048924839E-03
               2.3078276976024503E-03
              -2.8050424767039135E-03
               7.4944368509672612E-04
               1.2330342730215221E-03
               5.9481406848521298E-04
              -6.0437354106020321E-03
               5.5506832210115242E-04
               7.0660195953722621E-04
               1.4482878914912885E-03
              -3.6504701402838779E-04
              -5.2400868033340730E-04
              -1.5838174333845773E-03
               2.6933753840494424E-03
               1.3783178602156645E-03
              -2.7052502757749907E-03
              -4.2030466864956593E-04
              -2.4147228746227960E-04
              -1.6278216796849435E-04
               8.1018052714559787E-04
              -3.0446956474723423E-03
               2.1657757460270136E-03
               1.6705955170844629E-04
              -1.2752403714462097E-03
               5.1667799854005002E-04
               7.3556095970475264E-04
               2.0912773441528792E-04
               2.6700700614528832E-03
               2.0975867518265214E-03
              -1.0120325436915199E-03
              -8.5036237973916320E-04
               2.8724283965320021E-04
               5.2137191702427300E-04
              -1.2563138257841978E-03
               1.8589098625037133E-04
              -2.6953412700843719E-03
              -7.9828081773192141E-04
               1.8844745813719355E-04
              -2.2632445247792645E-03
               3.5076232257347829E-03
              -2.9489028682516223E-03
               2.6146138388233740E-03
               1.9377022054558341E-03
               6.2574808135883358E-03
               4.6524242622297390E-04
              -1.8643050532679421E-04
              -4.1299105173615378E-03
              -3.8755298845388284E-03
               4.6385018914229734E-03
               3.1508035713039553E-03
               1.7842819561460399E-03
              -4.0276241921071518E-03
               1.1627188957156334E-04
               5.6999393937494131E-04
              -5.0376272543414661E-04
              -2.0495825605993368E-03
               1.4769301727969922E-03
               1.5243239678751474E-03
               5.3906060013949571E-03
              -3.3509574975961374E-03
              -1.9849090448587907E-03
         &END THERMOSTAT_ENERGY
         &RNG_INIT
Wiener process for Thermostat # 1        1 F T T  -5.7810454681678780E-02        2354582722.0          74057116.0        1725944624.0        1943482626.0        2359923717.0        3210108033.0             12345.0             12345.0             12345.0             12345.0             12345.0             12345.0             12345.0             12345.0             12345.0             12345.0             12345.0             12345.0
Wiener process for Thermostat # 2        1 F T T  -7.7991276024738188E-01        4220441364.0        3929363862.0        2659388034.0        3967852090.0        3038336978.0        1880183035.0        3692455944.0        1366884236.0        2968912127.0         335948734.0        4161675175.0         475798818.0        3692455944.0        1366884236.0        2968912127.0         335948734.0        4161675175.0         475798818.0
Wiener process for Thermostat # 3        1 F T T   1.7223612512063388E-01        3402270143.0        2742074059.0        3390964282.0        1837765774.0        3990250512.0        3105830864.0        1015873554.0        1310354410.0        2249465273.0         994084013.0        2912484720.0        3876682925.0        1015873554.0        1310354410.0        2249465273.0         994084013.0        2912484720.0        3876682925.0
Wiener process for Thermostat # 4        1 F T T   1.2382648871488806E+00        4184979863.0         619130083.0         765057681.0        1062790871.0        2238050887.0        2299353556.0        2338701263.0        1119171942.0        2570676563.0         317077452.0        3194180850.0         618832124.0        2338701263.0        1119171942.0        2570676563.0         317077452.0        3194180850.0         618832124.0
Wiener process for Thermostat # 5        1 F T T   5.3206966297931568E-01        2901140400.0        2084077805.0        3814787965.0         515403457.0        2963547358.0         928926610.0        1597262096.0        3906379055.0        3312112953.0        1016013135.0        4099474108.0         275305423.0        1597262096.0        3906379055.0        3312112953.0        1016013135.0        4099474108.0         275305423.0
Wiener process for Thermostat # 6        1 F T T   2.2623559164585125E-01        1100930313.0        3625782656.0        2859022432.0        4108937187.0        3669362679.0        1335024580.0          97147054.0        3131372450.0         829345164.0        3691032523.0        3006063034.0        4259826321.0          97147054.0        3131372450.0         829345164.0        3691032523.0        3006063034.0        4259826321.0
Wiener process for Thermostat # 7        1 F T T  -1.1907182136714127E+00        2050974717.0        2391137871.0        3832463743.0        4002661152.0        1153107061.0         531698367.0         796079799.0        2105258207.0         955365076.0        2923159030.0        4116632677.0        3067683584.0         796079799.0        2105258207.0         955365076.0        2923159030.0        4116632677.0        3067683584.0
Wiener process for Thermostat # 8        1 F T T  -5.1403030062679644E-01        1894510500.0        2234748604.0        2589641685.0        1686900060.0         266897151.0        3296199161.0        3281794178.0        2616230133.0        1457051261.0        2762791137.0        2480527362.0        2282316169.0        3281794178.0        2616230133.0        1457051261.0        2762791137.0        2480527362.0        2282316169.0
Wiener process for Thermostat # 9        1 F T T   5.3666137096918387E-01        3788202861.0         311987464.0        1974366991.0        3053041552.0        2030402599.0        3326787221.0        3777646647.0        1837464056.0        4204654757.0         664239048.0        4190510072.0        2959195122.0        3777646647.0        1837464056.0        4204654757.0         664239048.0        4190510072.0        2959195122.0
Wiener process for Thermostat # 10       1 F T T  -1.3505692272937941E-01        2159135723.0         905216261.0        2000862508.0         369605228.0        3217476266.0        1503685340.0        4215590817.0        3862461878.0        1087200967.0        1544910132.0         936383720.0        1611370123.0        4215590817.0        3862461878.0        1087200967.0        1544910132.0         936383720.0        1611370123.0
Wiener process for Thermostat # 11       1 F T T  -3.0817722024605504E-01        1728503824.0        3769708551.0         715150681.0         785858346.0        2551715513.0        2006879877.0        1683636369.0         362165168.0         814316280.0         869382050.0         980203903.0        2062101717.0        1683636369.0         362165168.0         814316280.0         869382050.0         980203903.0        2062101717.0
Wiener process for Thermostat # 12       1 F T T  -8.2166449650027495E-01        1267099525.0        2331044376.0         149534225.0        3900358772.0         516271386.0        3460260156.0         272317999.0         166758548.0         310112982.0         201045826.0        1680231254.0         118290799.0         272317999.0         166758548.0         310112982.0         201045826.0        1680231254.0         118290799.0
Wiener process for Thermostat # 13       1 F T T   9.5707416189033667E-01        4087911824.0        2196195632.0        3539681900.0         194771042.0        3193707970.0         786251108.0        2245755202.0        1652682525.0        2865544364.0         721509566.0         209733568.0         592362218.0        2245755202.0        1652682525.0        2865544364.0         721509566.0         209733568.0         592362218.0