 # Version information for this restart file 
 # current date 2024-11-21 20:37:24.508
 # current working dir /scratch/work/courses/CHEM-GA-2671-2024fa/students/zz10074/comp-lab-class-2024/Week12-IntroAIMD/Runs_Water
 # Program compiled at                              Sat Dec 12 18:27:15 EST 2020
 # Program compiled on                                         cs001.nyu.cluster
 # Program compiled for                                                nyu-intel
 # Source code revision number                                       git:8c64c6e
 &GLOBAL
   PRINT_LEVEL  LOW
   PROJECT_NAME water_aimd_1ns_every0.5fs
   RUN_TYPE  MD
   WALLTIME 21600
 &END GLOBAL
 &MOTION
   &GEO_OPT
     OPTIMIZER  BFGS
     MAX_ITER  100
     MAX_DR     3.0000000000000001E-03
     &BFGS
     &END BFGS
   &END GEO_OPT
   &MD
     ENSEMBLE  NVT
     STEPS  2000
     TIMESTEP     4.9999999999999994E-01
     STEP_START_VAL  155
     TIME_START_VAL     7.7500000000000057E+01
     ECONS_START_VAL    -1.1023558357480233E+03
     TEMPERATURE     3.0000000000000000E+02
     &THERMOSTAT
       TYPE  GLE
       REGION  MASSIVE
       &GLE
         NDIM  5
         A_SCALE     1.0000000000000000E+00
         A_LIST     1.8595758612559999E+02    2.7263853498399998E-01    1.1526100454610001E+01   -3.6414578262600003E+01 \
             2.3173375816020001E+02
         A_LIST    -2.7809524712060002E-01    8.5951591808710006E-05    7.2189048017650004E-01   -1.9844539343859999E-01 \
             4.2409257583420001E-01
         A_LIST    -1.4825808131210000E+01   -7.2189048017650004E-01    1.3590902121280000E+00    5.1498896280349999E+00 \
            -9.9949268450990001E+00
         A_LIST    -1.0372189126880000E+01    1.9844539343859999E-01   -5.1498896280349999E+00    2.6661910891169999E+01 \
             1.1507715495310000E+01
         A_LIST     2.1801346360420001E+02   -4.2409257583420001E-01    9.9949268450990001E+00   -1.1507715495310000E+01 \
             3.0958394565589998E+02
         &THERMOSTAT_ENERGY
              -1.8156514612953085E-03
               6.6543878536559414E-04
              -9.8493615061773113E-05
              -2.7506635788318561E-03
              -1.3033052110348789E-03
               3.2600188573807471E-03
              -2.4875576711608271E-03
               6.0070998235218576E-04
               4.1947605456975319E-03
              -2.9813316615445243E-03
               3.6346127495141163E-03
               1.0736265667011351E-03
               2.3333834045138465E-03
              -9.8791152564308804E-04
               6.4740994059674073E-04
              -1.8435777898868386E-03
               1.9603343098588358E-03
              -2.7718335968505638E-03
               2.3512296151524522E-03
              -8.3012384031508043E-04
              -1.1086144412804175E-03
               4.6363486614779518E-04
              -4.5668161167814359E-04
               3.5750043369550859E-03
              -3.5652395818385535E-03
              -1.5870642424007607E-03
               3.8259777768203198E-03
               1.0921077938291835E-03
               5.4018310917639965E-04
               3.0335510004799745E-04
              -4.3974303228161546E-04
              -2.1274375857140244E-03
               3.4324240133867486E-04
               2.0044430680875194E-03
              -2.7329923444592641E-03
               3.5324433861141698E-03
               2.4482078135063039E-04
               1.5981335112718584E-04
              -1.2613905323265665E-03
               1.9966430251913228E-03
               6.1510906453741932E-04
              -1.8786752728102748E-03
              -4.2589140392602882E-04
               2.0878315825340302E-03
              -2.2163037434462284E-03
               1.3235684246468938E-03
              -7.2068376411562978E-04
              -2.6534323183496065E-04
              -1.3696902686193377E-03
              -8.3751062209405831E-04
               2.6852706022231867E-03
               3.3378664037277291E-04
              -5.0831445365048824E-05
              -1.9504978200611306E-03
              -2.3724832294145376E-03
              -9.9080616656640509E-04
              -1.3215766740770061E-03
               8.0683100494184775E-04
               2.4941607104340987E-03
              -3.4614970054455529E-03
              -1.7733827250839351E-05
               3.3882697680662844E-03
              -1.3961123097400400E-03
              -2.6301911706818910E-04
              -5.6247934250041719E-04
               1.0230233038938351E-03
              -4.0565924443564947E-03
               1.8613891785720241E-03
              -2.0962348982373610E-03
               1.5477336132153252E-03
               1.9703003261635063E-03
              -8.6408625347055256E-05
              -1.3840059862636901E-03
              -4.7691073913196515E-05
              -2.3556333017745641E-04
              -1.7433603554027749E-03
               4.0173612129486779E-04
               3.0949801056547443E-03
               4.1820837927261864E-03
              -1.9506072749934575E-03
              -6.2983390721470494E-04
              -4.0059228902842746E-04
              -1.7890548121534304E-03
               2.6183967122845746E-04
               2.9291164966060487E-03
              -1.2189215725148419E-04
               7.7821899550668556E-04
               1.7660029524648123E-03
               7.1231443418692971E-04
              -2.0051381068582575E-03
               3.1633494985271126E-03
              -2.1330127271187208E-03
               4.1704799739495735E-04
              -1.4179330886018577E-04
              -4.1813122852972038E-03
              -8.0950850585752147E-04
               3.1675139777719529E-04
              -3.3591955132785526E-03
               2.5180771542130183E-03
               1.3321201286151517E-03
              -7.4622819316958800E-04
              -1.8530691216315557E-03
               5.3582236140395347E-05
               7.4488053671361394E-04
               3.1751680911005302E-03
              -2.1207944279887864E-03
              -1.1384782352737153E-03
              -1.1366422664530066E-03
               3.0112343335720049E-03
              -2.7189257945673501E-04
               5.0255156491718867E-03
               4.2898503567365945E-04
              -6.4034190298152647E-04
               5.9824714722986100E-04
              -9.8993111316221071E-05
               3.8986592230081940E-03
              -8.3958984606101739E-03
               1.4956464643146145E-03
               2.9861187161737697E-04
               1.1037388003004693E-03
               1.1834070534718982E-04
               5.0505907377740408E-04
               4.2739406276431054E-03
               8.6388363231469520E-05
              -3.6890022082721693E-03
              -3.1256569085153234E-04
               1.4084709920173840E-03
               3.5496496282574792E-03
              -2.5613323223896034E-04
               2.0011815696389453E-03
              -1.6683167590640468E-03
              -1.9816862815300188E-03
              -1.2211795802122157E-03
              -1.4850306969594012E-03
              -1.0079395583435205E-03
              -4.5804027241327515E-04
              -4.5973169351477881E-04
              -1.7742247007938006E-03
               2.9774931081397150E-04
               1.2771046606429490E-03
               2.7130450957204102E-03
               1.8665650010669464E-03
               6.3038497504064989E-04
               4.0694410690875942E-04
              -3.4894291531727233E-03
               9.8634716715268215E-04
               1.0316785580380778E-03
               1.6905446833036383E-04
              -2.2717808171792146E-03
               3.1071725646363789E-03
               4.0064896750091172E-04
               1.7839065065365120E-03
              -2.0126644998169699E-03
              -4.8737771895687710E-04
               8.3389074943142447E-04
               6.5271528812864789E-04
               1.7044202030398080E-03
               1.1148395375038958E-03
              -1.6506631375282584E-03
               1.1733377426271850E-03
              -2.3338077269769212E-03
              -3.9981470474189521E-03
              -6.1009359599977539E-04
               3.9022819541429114E-04
               2.0123544667085811E-03
               4.5611347361321324E-03
               2.8047371819519482E-03
               6.6280167542520407E-05
              -5.6015956111250291E-03
               1.0481820331318739E-03
              -2.6762756893466738E-04
               1.1921361218487460E-04
               1.6552534893789696E-03
              -1.6007828881134422E-04
               5.4490455917525810E-04
              -1.6589126934427355E-03
               7.9040503213134586E-04
               1.3168181642408204E-03
               5.2251009780191577E-04
               1.6974968792538322E-03
               2.4039053836536186E-05
              -5.6034506322177944E-04
               1.5690585825096799E-03
               3.1680005982512153E-04
              -1.3037356038161849E-03
               3.9375435403456443E-04
              -9.6626803921723737E-04
              -1.4819866672914124E-04
              -7.8267180844717138E-04
               1.6626142729016665E-03
               1.1098230311936250E-03
              -2.6642206422640151E-03
               3.0097351500738760E-03
              -3.2996766586086456E-03
               7.2008836269032300E-04
              -5.7919766839845295E-03
               7.2406310753751334E-04
              -1.5413112876096040E-04
              -2.6594150852482068E-04
              -1.1074007383793535E-03
               1.0301611644515916E-03
              -9.0177129475427133E-04
               1.4884147089214606E-03
               1.3999915728048961E-03
              -3.9672856996845595E-03
               6.4757029244445654E-05
              -1.0034647789085871E-03
               1.6626111324824998E-03
              -1.9545366314683349E-03
               3.8490358148304876E-03
              -9.6723443902377380E-04
               1.5864073891731320E-04
               2.1977994896655111E-03
              -4.2153463789950749E-03
               2.6902052917502496E-03
               4.1692526693797097E-03
               1.3858067161468279E-03
               8.6769999153101483E-04
              -1.8981521605722332E-03
              -1.5544833634632386E-03
               3.9832895115578396E-03
              -1.7170928036868538E-03
               2.2782442216858546E-03
              -1.0906417546536560E-03
              -7.4969505459752993E-04
               4.4938579323517514E-04
               3.4685793422163452E-04
               6.7280398049304724E-04
              -7.8344137843498122E-04
               3.3814466862678106E-03
              -1.4136229784475218E-03
               2.7022306717443280E-03
              -7.9804034835010329E-04
               6.4302219965131613E-04
               2.9598879082248855E-03
               1.1661214025184387E-03
              -1.9554724087915555E-03
               2.7907982273701593E-03
              -8.5653261372230639E-04
               1.0092996077705876E-04
               4.9358440946625933E-04
              -1.3630491255043307E-03
               2.5205693522609108E-03
               1.0251168179722073E-03
               1.1465163903418203E-03
               8.3142020606613598E-04
              -2.3093098935800493E-04
               7.0742781577995168E-04
               6.8031646941465530E-04
              -4.5372959669917152E-03
               6.9508404612724515E-04
               2.4045133887304363E-03
              -8.5250689475254425E-04
               7.0178900367302486E-04
              -2.6974235224221138E-03
              -1.4943397640384362E-03
              -2.5337931714261071E-03
               2.5974777853048504E-04
               6.0374575087645068E-04
              -1.4445893468585502E-03
               2.3206468945464387E-03
               1.6484323310320722E-03
               1.5082837187772526E-03
               1.4235560471728202E-03
              -1.8792442954307449E-04
              -1.6830288950726979E-03
               2.0241870208026675E-05
              -3.1469956683848933E-04
              -1.6388647261761824E-03
              -2.6195122404574058E-03
              -3.8064076837211465E-03
              -1.0481281796423177E-03
               1.2795106479594224E-03
              -1.3792882454986581E-03
               1.2127368717786350E-03
               1.5003408227704821E-03
              -4.9126596292449441E-03
              -6.0002745957362334E-04
               1.2844890736154221E-03
               1.3743773958967140E-03
               5.0833362499404320E-04
              -7.2880743640932756E-04
               2.4921033115782856E-03
               1.7870872414376608E-03
              -3.9434402633781304E-03
               3.5377570668340317E-04
              -3.6742643120854877E-03
              -1.3120313028262675E-03
               1.4963370396286449E-05
               5.1760039614918432E-04
               4.3278688668798400E-04
               2.9147493095019084E-03
              -2.1646204918096086E-03
              -8.5260016214844920E-04
               1.4872954716184297E-03
               1.0427519958871180E-05
              -1.7349748010834340E-03
              -1.0586459495684412E-03
              -3.0634427041742861E-03
              -3.3135068629814573E-05
               1.9104525021461901E-03
               5.8453623171447007E-04
              -4.0842133998222679E-03
               1.6055645047835920E-03
               3.4905869935633730E-03
              -7.7844982712899969E-04
              -8.8129332258138566E-04
               3.5908394440703928E-04
              -1.6940579697564094E-03
              -8.5310378845918512E-05
               9.2131673589659641E-04
              -6.1262330451720623E-03
               2.4207853616809538E-03
               1.7198846938226515E-03
               1.7022995948918610E-03
               2.1938632110843148E-03
               3.8265383854752222E-04
               4.7902252458163199E-03
               1.7060505633799618E-03
              -9.1200935158913202E-04
               1.3340830149238757E-03
              -2.6415893794208617E-03
              -4.2585281841185279E-03
               3.5589105457114849E-03
               1.5202811966615273E-04
               1.0784818049376101E-03
               2.1815430715094804E-04
               1.0959736639050352E-03
              -1.3112795090799107E-03
              -6.7813803664011499E-04
              -3.1161739286756840E-03
              -1.5673823953001832E-03
               9.6788660599606436E-04
               1.6582484361993965E-03
               1.2854976940798292E-03
              -1.1653030645072498E-04
               3.7711702271894906E-03
               2.4855361093777621E-03
              -2.0415908694600463E-03
              -1.0747322886845375E-03
               1.5065249025909139E-05
               7.2107520174731195E-04
               3.0944197004927594E-03
               1.2904920782909827E-03
              -4.9498047123382703E-05
              -3.5893864354816419E-04
              -2.0116609933130817E-03
              -1.1147404797836205E-03
              -6.0122449254674203E-04
              -8.1270028816043309E-04
              -1.8567131757132884E-03
              -4.6648407174774043E-04
              -2.4060447236400181E-03
              -4.7857590643644778E-05
              -5.7580378981695744E-04
               3.1571941872104585E-04
               3.6327058877761416E-03
              -1.3078242260126389E-03
              -4.5262860040479636E-04
               4.7862037067410851E-03
              -3.9157172447474512E-04
              -3.4047183419204938E-04
              -1.6303269013567007E-03
              -7.9052163001896709E-04
               9.2371821468641689E-04
              -9.3983018329505308E-04
               1.9485526140592009E-03
               8.3509687147390738E-04
               6.9200981974180367E-04
              -9.9420439905590686E-04
               3.2446411484581307E-03
              -2.0030138260588963E-03
               3.4370279716072218E-03
              -1.0625135808072501E-03
              -1.5676170142318094E-03
              -4.1789465140546697E-03
               1.7695926485163452E-03
               2.8460589241813697E-03
               1.5864834562891333E-03
              -1.6694274800579321E-04
               9.7536562481377587E-04
               9.5558301050914301E-04
               2.0009696400672930E-03
               1.7226546587493720E-03
              -7.9200795228018366E-03
              -2.5840846818248704E-04
               5.3451317320729694E-04
              -4.2829993080885564E-03
               4.2045984731603204E-04
               1.2068555134457490E-03
               1.5727290194264090E-03
              -1.6077174229702136E-03
              -8.0208307939666598E-04
              -5.1506327356130041E-03
              -3.5214497365669106E-03
              -2.2086680626687747E-03
              -2.6459020457780661E-03
               2.0103310967679051E-03
               1.0116773486234187E-03
               7.4403109660424460E-04
              -5.1150937662469108E-03
              -9.5256844312928299E-05
               6.5254001684059235E-04
              -1.0705689256315886E-03
               3.5857685267093853E-03
              -3.3824947787798650E-03
               2.0161009910666343E-04
               1.9409825848042111E-03
              -1.4358085071733999E-03
              -2.2688084024429771E-03
              -1.4212405727986549E-03
              -1.2519582003666819E-03
               8.8743405872137486E-04
               2.9678327841396977E-03
              -3.6114567060609496E-03
              -1.2565392202749118E-04
               2.5608470307403910E-04
              -2.6147549732806509E-03
              -4.1463104502790478E-03
               7.2851987352466783E-03
              -1.3012835500212513E-03
              -2.9585268120086656E-03
              -1.3729260891832216E-03
               2.4264925124032511E-03
              -1.1248922111273107E-03
              -2.8636544841700124E-03
              -6.2532216610977989E-04
              -4.3127066940356904E-03
               8.6018336055333224E-04
              -1.1263514845704932E-03
               1.0119327913402465E-03
              -4.8506480673376423E-03
               1.9745829316279713E-03
              -1.2557889628059663E-03
               1.1327653429713943E-03
              -1.0482460871104257E-03
              -1.3269236039413559E-03
               5.0404937044644176E-04
               5.0763642552161745E-03
               2.5005397455719822E-03
              -6.5910293853164124E-03
              -2.1843375649927979E-03
              -1.9086895177086213E-03
               8.8269204932303646E-04
               7.8221438493239091E-04
               3.2141673433698304E-03
              -1.7731748467812428E-03
              -3.4931788169556719E-03
              -1.1932220715766179E-04
               8.0212596066143061E-04
              -5.2815511780462151E-04
              -2.7471432936997616E-03
               7.9496206625432307E-04
               1.8418438831719285E-03
              -3.0474923368448439E-03
               1.7645664303362696E-05
               7.2254203468551754E-03
               8.2658586562726791E-04
              -2.7717199339651233E-03
              -5.2688797987100397E-05
               3.3459254733941997E-03
              -1.3007074288531309E-03
              -4.9396912993821440E-05
              -2.4119246046780773E-03
               6.7373675491175992E-04
              -1.1384230576500609E-03
              -1.8421285768795862E-03
              -1.3953776323924441E-03
               6.2425772566772136E-04
               7.2982044783892930E-04
               1.7846607040587070E-04
               1.6209655102392500E-03
              -1.5633489869566705E-03
               2.7111597272620092E-03
              -4.0214894037881492E-04
               3.0826348076080975E-03
               1.8152814605299338E-03
              -6.7170281010884149E-04
              -6.7079072243448636E-05
               6.8269616502450545E-04
               5.6733920107941037E-03
              -9.6036391458341366E-04
              -1.3885464903632182E-03
              -2.1372301766560855E-03
              -1.9861536301756331E-03
               1.3720808294310500E-03
              -2.2005766028181863E-04
              -1.6791075912938776E-03
              -6.9760497330738564E-04
               8.4323689105487325E-04
               3.5682442641926593E-05
              -1.1085963796794059E-03
              -1.8575374335648774E-03
               1.0449701360755773E-03
               2.6691771102092280E-03
               9.8794005120241175E-04
              -1.2432323815540266E-03
              -1.0379111825453051E-03
              -5.6094058490970390E-04
              -3.5095660447885301E-03
               3.5454426474171492E-03
               3.6979328394839267E-04
               1.8476664892885558E-03
              -2.2041950009464625E-03
               4.0286897303036762E-04
              -1.8095474351240743E-03
               1.3354993196589742E-03
              -7.4683453764915158E-06
               1.7951662091240540E-03
              -7.2773392495330399E-04
               4.8688249625586090E-04
               5.5685965724617007E-03
              -4.0726393159355757E-03
               2.1343417239478861E-03
               3.4988822177677893E-04
               1.2049826899075123E-03
               2.4015690212770197E-03
              -1.6771880122782334E-03
               7.4902152338463522E-04
               1.2388321523977193E-03
               5.3695906629227055E-04
              -6.1507004954192415E-03
               5.5133392098374325E-04
               6.8230772439967973E-04
               1.2082604198177332E-03
              -8.2262138580833932E-04
              -5.1845964811740954E-04
              -1.2623088720609499E-03
               2.4793755939998322E-03
               1.5488212951138187E-03
              -2.7312902787646797E-03
              -4.6131164862139282E-04
              -3.2707106579412786E-04
              -1.1090826007696087E-03
               7.8758896163402597E-04
              -3.2505763758928071E-03
               1.9219438698032747E-03
               5.6878423322260206E-04
              -1.0586604881711449E-03
               5.1597984399934227E-04
               6.1880046923838325E-04
               2.0149200223589447E-04
               2.6565727667258445E-03
               2.1013280235090519E-03
              -1.0084507595692939E-03
              -5.2982254758863101E-04
              -2.0290639809634114E-04
               5.3889594042884890E-04
              -8.5981263548037281E-04
              -1.7062830601727845E-04
              -2.6297159300944692E-03
              -7.8494676387067561E-04
              -8.8424337504746351E-05
              -2.7882573790196392E-03
               3.4723149463604121E-03
              -3.0095936423774872E-03
               2.6103657836784636E-03
               2.0055011706453132E-03
               5.7020270542299930E-03
               4.6582989998030774E-04
              -3.5179196131343094E-04
              -2.7933378525237650E-03
              -3.7487994447373183E-03
               4.5014839581144460E-03
               3.3536435180091142E-03
               1.9674164213678447E-03
              -3.4364621749997768E-03
               1.4735447201956592E-04
               5.1546489950123943E-04
              -3.1655226799227703E-04
              -2.2650079542443054E-03
               1.6944443610174766E-03
               1.5146900960011599E-03
               5.2057080114678005E-03
              -3.4522396662658005E-03
              -2.8240244357132303E-03
         &END THERMOSTAT_ENERGY
         &RNG_INIT
Wiener process for Thermostat # 1        1 F T T  -1.3738102098207583E-01         519931288.0         781336555.0         422031057.0         909616443.0        3469914571.0        3633642455.0             12345.0             12345.0             12345.0             12345.0             12345.0             12345.0             12345.0             12345.0             12345.0             12345.0             12345.0             12345.0
Wiener process for Thermostat # 2        1 F T T   1.0665005610812592E+00        1149067613.0         342634585.0        1290467180.0         396401374.0        2199042273.0        3693202161.0        3692455944.0        1366884236.0        2968912127.0         335948734.0        4161675175.0         475798818.0        3692455944.0        1366884236.0        2968912127.0         335948734.0        4161675175.0         475798818.0
Wiener process for Thermostat # 3        1 F T T  -3.4580794274504528E-01         373852773.0        3464698069.0        4081320526.0        3901766224.0        2444794125.0         886583853.0        1015873554.0        1310354410.0        2249465273.0         994084013.0        2912484720.0        3876682925.0        1015873554.0        1310354410.0        2249465273.0         994084013.0        2912484720.0        3876682925.0
Wiener process for Thermostat # 4        1 F T T  -8.5736717410595387E-01          33353392.0        3755826546.0        2075678555.0        1613865030.0        3047909140.0        4280949076.0        2338701263.0        1119171942.0        2570676563.0         317077452.0        3194180850.0         618832124.0        2338701263.0        1119171942.0        2570676563.0         317077452.0        3194180850.0         618832124.0
Wiener process for Thermostat # 5        1 F T T   1.3179404951213252E+00        4140189541.0        1813464805.0        1906991240.0        1807202918.0        3239359239.0          17436786.0        1597262096.0        3906379055.0        3312112953.0        1016013135.0        4099474108.0         275305423.0        1597262096.0        3906379055.0        3312112953.0        1016013135.0        4099474108.0         275305423.0
Wiener process for Thermostat # 6        1 F T T   2.5063314903247491E-01        2772796890.0        4144333242.0        2518628171.0        4030111352.0        1926465457.0        2498878796.0          97147054.0        3131372450.0         829345164.0        3691032523.0        3006063034.0        4259826321.0          97147054.0        3131372450.0         829345164.0        3691032523.0        3006063034.0        4259826321.0
Wiener process for Thermostat # 7        1 F T T   7.8304945712814733E-01        1192201100.0        3797505899.0         852325413.0          55292630.0        4211926649.0         706341869.0         796079799.0        2105258207.0         955365076.0        2923159030.0        4116632677.0        3067683584.0         796079799.0        2105258207.0         955365076.0        2923159030.0        4116632677.0        3067683584.0
Wiener process for Thermostat # 8        1 F T T   6.6402233841100078E-01        1991291237.0        2248664835.0         351165186.0        2275234627.0        3029090403.0        2078086227.0        3281794178.0        2616230133.0        1457051261.0        2762791137.0        2480527362.0        2282316169.0        3281794178.0        2616230133.0        1457051261.0        2762791137.0        2480527362.0        2282316169.0
Wiener process for Thermostat # 9        1 F T T   8.3388572543451200E-01        1902147062.0         902791355.0        1574746632.0        3137703298.0        1288714417.0         109275323.0        3777646647.0        1837464056.0        4204654757.0         664239048.0        4190510072.0        2959195122.0        3777646647.0        1837464056.0        4204654757.0         664239048.0        4190510072.0        2959195122.0
Wiener process for Thermostat # 10       1 F T T   7.1078804321358946E-01         532973077.0        2616737908.0        2142407491.0        1693128657.0        3434228630.0        3496570877.0        4215590817.0        3862461878.0        1087200967.0        1544910132.0         936383720.0        1611370123.0        4215590817.0        3862461878.0        1087200967.0        1544910132.0         936383720.0        1611370123.0
Wiener process for Thermostat # 11       1 F T T  -1.1948190230432800E-02          15737235.0        2060742773.0         645899498.0         768871386.0         154660995.0        3650579791.0        1683636369.0         362165168.0         814316280.0         869382050.0         980203903.0        2062101717.0        1683636369.0         362165168.0         814316280.0         869382050.0         980203903.0        2062101717.0
Wiener process for Thermostat # 12       1 F T T  -8.3331810944533224E-01         561751022.0        2912049609.0        2764085979.0        2577226064.0        2279513041.0        1224703045.0         272317999.0         166758548.0         310112982.0         201045826.0        1680231254.0         118290799.0         272317999.0         166758548.0         310112982.0         201045826.0        1680231254.0         118290799.0
Wiener process for Thermostat # 13       1 F T T  -9.7120276989902332E-01          19445560.0        1071588596.0        3837279405.0        3668703095.0         588511315.0        2094156786.0        2245755202.0        1652682525.0        2865544364.0         721509566.0         209733568.0         592362218.0        2245755202.0        1652682525.0        2865544364.0         721509566.0         209733568.0         592362218.0