 # Version information for this restart file 
 # current date 2024-11-21 20:35:59.632
 # current working dir /scratch/work/courses/CHEM-GA-2671-2024fa/students/zz10074/comp-lab-class-2024/Week12-IntroAIMD/Runs_Water
 # Program compiled at                              Sat Dec 12 18:27:15 EST 2020
 # Program compiled on                                         cs001.nyu.cluster
 # Program compiled for                                                nyu-intel
 # Source code revision number                                       git:8c64c6e
 &GLOBAL
   PRINT_LEVEL  LOW
   PROJECT_NAME water_aimd_1ns_every0.5fs
   RUN_TYPE  MD
   WALLTIME 21600
 &END GLOBAL
 &MOTION
   &GEO_OPT
     OPTIMIZER  BFGS
     MAX_ITER  100
     MAX_DR     3.0000000000000001E-03
     &BFGS
     &END BFGS
   &END GEO_OPT
   &MD
     ENSEMBLE  NVT
     STEPS  2000
     TIMESTEP     4.9999999999999994E-01
     STEP_START_VAL  154
     TIME_START_VAL     7.7000000000000057E+01
     ECONS_START_VAL    -1.1023558357480233E+03
     TEMPERATURE     3.0000000000000000E+02
     &THERMOSTAT
       TYPE  GLE
       REGION  MASSIVE
       &GLE
         NDIM  5
         A_SCALE     1.0000000000000000E+00
         A_LIST     1.8595758612559999E+02    2.7263853498399998E-01    1.1526100454610001E+01   -3.6414578262600003E+01 \
             2.3173375816020001E+02
         A_LIST    -2.7809524712060002E-01    8.5951591808710006E-05    7.2189048017650004E-01   -1.9844539343859999E-01 \
             4.2409257583420001E-01
         A_LIST    -1.4825808131210000E+01   -7.2189048017650004E-01    1.3590902121280000E+00    5.1498896280349999E+00 \
            -9.9949268450990001E+00
         A_LIST    -1.0372189126880000E+01    1.9844539343859999E-01   -5.1498896280349999E+00    2.6661910891169999E+01 \
             1.1507715495310000E+01
         A_LIST     2.1801346360420001E+02   -4.2409257583420001E-01    9.9949268450990001E+00   -1.1507715495310000E+01 \
             3.0958394565589998E+02
         &THERMOSTAT_ENERGY
              -1.3609958724500591E-03
               1.3986810068186222E-03
              -2.5002846066089695E-05
              -2.7847237318312924E-03
              -1.9036987473984460E-03
               3.2569417309368845E-03
              -2.4945528143394870E-03
               5.5835356718452259E-04
               4.3183881206438398E-03
              -1.9380912824153696E-03
               3.6570344676618203E-03
               1.2283027878449910E-03
               2.6085888063651823E-03
              -9.9399624100598993E-04
               4.8992377643488857E-04
              -2.1008901966486498E-03
               1.8032500932668059E-03
              -3.7356394094989606E-03
               1.4301936754281533E-03
              -7.1885691361938862E-04
              -1.0567251965635331E-03
               1.3327231508317535E-04
              -5.2698011342636804E-04
               3.1907990808861687E-03
              -3.6232304866013702E-03
              -1.5632096484688536E-03
               3.4193863645528657E-03
               1.1655868228730021E-03
               6.1881291555809662E-04
               3.2026851161886367E-04
              -3.6754963082113020E-04
              -2.1669775691952565E-03
               3.6019670734252637E-04
               2.2336786788849407E-03
              -2.7338192406068528E-03
               2.6133385969726967E-03
               1.8691606773625483E-04
              -2.9865479265716059E-04
              -2.1569607331518477E-03
               2.0031461090169391E-03
               1.9370453739134589E-05
              -1.6583375876022587E-03
              -3.5608278751663195E-04
               2.5777758415197372E-03
              -2.1533124749271849E-03
               1.0979220980753901E-03
              -7.5123099714959030E-04
              -3.4854088242038843E-04
              -1.6670018552032134E-03
              -8.3564342746983943E-04
               2.5672185186465068E-03
               4.7958186343146551E-04
               3.9895692339267375E-06
              -9.3783257881841831E-04
              -2.3811728887940383E-03
              -5.6134332983369785E-04
              -2.5926099608382766E-03
               1.1655451486479187E-03
               2.5850211136506148E-03
              -3.3103117954424843E-03
              -2.1424488375921698E-05
               3.1844211765743456E-03
              -1.2856311748230846E-03
              -1.6515657481771037E-04
              -6.2506568140411754E-04
               1.2930186224531241E-03
              -4.1816820925373952E-03
               1.6709587029193581E-03
              -1.6964233763862833E-03
               1.4112882411300906E-03
               2.4597116462381392E-03
              -4.4930604206573817E-04
              -8.6286519668164849E-04
               1.7945824335011790E-04
              -2.4070010771444622E-04
              -1.6031039748592192E-03
               5.0598808799005011E-04
               3.2775015310560116E-03
               4.1682502138620020E-03
              -1.3795610972882101E-03
              -5.2608301987692606E-04
              -8.2525951571248959E-04
              -1.2437717957804349E-03
               2.7803155000207571E-04
               3.1396888979739173E-03
              -1.6023333572993517E-04
               7.2218808060525415E-04
               1.8283084122435948E-03
               1.0066675812994584E-03
              -2.0693800933020688E-03
               2.9524327073959869E-03
              -2.0519085937583631E-03
               5.9153335187871778E-04
               2.8371721534357810E-04
              -4.1049232829744389E-03
              -6.7527886441908836E-04
               6.1699341252400598E-05
              -3.0147677798282820E-03
               2.5654041069707052E-03
               1.2350242043651452E-03
              -8.8814925388956017E-04
              -2.2163853093260634E-03
               8.2947771254624338E-05
               6.4455600316914096E-04
               3.2419652025256723E-03
              -2.2818032053375280E-03
              -1.2500607886820900E-03
              -1.1289198879954952E-03
               3.2996981858469570E-03
              -2.8289101927202686E-04
               4.5934958136844891E-03
               4.9777520283768490E-04
              -6.8885366065138707E-05
               6.4445943697479663E-04
              -1.4740704305187295E-04
               3.5418397275773839E-03
              -8.7177532283951812E-03
               1.4980679342907947E-03
               4.2959060122906825E-04
               9.8990374931468331E-04
               3.9216464661027186E-04
               3.8243552292350900E-04
               4.2144726126538395E-03
               1.3042117007973134E-04
              -3.2751774567726750E-03
              -8.3223319492843899E-04
               1.2729899519759165E-03
               3.4509216268644905E-03
               2.5881889506244784E-04
               2.1103268468431508E-03
              -2.0475550170441690E-03
              -2.0435985289138604E-03
              -1.6792472730897253E-03
              -9.1642588994327425E-04
              -1.1330552368809357E-03
               9.7997686393981424E-05
              -4.3458865143698917E-04
              -1.7594957813389224E-03
               2.1977242043706331E-04
               1.2417893815158381E-03
               2.7227739482466018E-03
               1.9564226868075516E-03
               6.3485362670067692E-04
               3.6229656540427262E-04
              -3.1630056868605467E-03
               9.0544152727242699E-04
               1.4877956885348885E-03
               3.1959965273599422E-04
              -1.8818057929167484E-03
               3.1586426810283454E-03
               3.2339076073860764E-04
               1.5871765227674158E-03
              -2.1485312373941451E-03
              -2.0629147259834321E-04
               2.4821081855610474E-04
               6.1798762655411931E-04
               2.1454203489197259E-03
              -4.5340649698114585E-05
              -2.5777540018002724E-03
               1.2161422155614542E-03
              -2.3428125668806810E-03
              -3.9218539601404648E-03
              -8.2424684685569922E-04
               3.8060732663001024E-04
               2.2011204385514187E-03
               4.6109992087201125E-03
               2.6247660897063766E-03
               2.3832663651575053E-04
              -5.3980322259501610E-03
               1.1314636612838338E-03
              -2.5126207511362054E-04
              -5.5581054512841475E-05
               1.5696747818254974E-03
               2.5152490837265686E-04
               1.0384962486390690E-03
              -1.6785976426699210E-03
               8.0995186279429299E-04
               1.4365045537290426E-03
               2.2425083726907200E-04
               2.1291818732460371E-03
               1.3296680037208392E-04
              -5.0441718477564862E-04
               1.5584106588956655E-03
               4.0251142518888744E-04
              -5.2419662490819864E-04
               3.8062343336790207E-04
              -9.7316170298054070E-04
              -3.2432330129894668E-04
              -9.9214870416390794E-04
               1.6775064398082947E-03
               7.4981237097657052E-04
              -3.3566962956775520E-03
               2.9834130909675957E-03
              -3.8692226366805671E-03
               8.8107365245311737E-04
              -6.1265473123746327E-03
               5.3425138924660599E-04
              -1.8750807566376938E-04
              -2.1212358109105997E-04
              -9.5550882062466044E-04
               9.6786964166186828E-04
              -4.7841790768613803E-04
               8.1919815614189264E-04
               1.6124429851838884E-03
              -3.4646076343266144E-03
               1.1668534081774821E-04
              -1.2369530846509857E-03
               1.5392469463955632E-03
              -1.5300637297886214E-03
               3.9170047860978916E-03
              -9.7117240552514847E-04
               1.0125886016985712E-04
               2.2329151260426405E-03
              -4.4415134457105529E-03
               3.4467458861917421E-03
               4.7865275999387060E-03
               7.9041088736008869E-04
               7.9932425947020120E-04
              -2.5373053893869759E-03
              -1.4208188755180477E-03
               3.5057613765126544E-03
              -1.6966321394170202E-03
               2.2009126804394237E-03
              -1.0188819274652651E-03
              -1.1088364446651534E-03
               4.8324515076132691E-04
               5.5830256278092158E-05
               6.2758401201007787E-04
              -6.3360365278727882E-04
               3.3520920017205626E-03
              -1.6168122508104133E-03
               2.7173151404243034E-03
              -6.4026133978068670E-04
               2.6544730122650493E-04
               2.7629474154849919E-03
               1.0969849805507019E-03
              -2.0002483328993388E-03
               2.8031058515653718E-03
              -8.8189158840158244E-04
               9.0095118386806215E-05
               3.8311355246725568E-04
              -1.6977066531116869E-03
               2.6628024260093980E-03
               1.1952050758272526E-03
               1.1699660842077108E-03
               8.2191372357119045E-04
              -1.7353041406933066E-04
               7.7460810442311749E-04
               6.2868463396822559E-04
              -4.1700816584834006E-03
               6.6526496045210255E-04
               2.4291668969248018E-03
              -7.9375872513675727E-04
               6.7957524043195611E-04
              -2.3963533422114410E-03
              -1.5293678891214221E-03
              -2.6904545555685422E-03
              -2.0302344846465494E-05
               5.8578421138108473E-04
              -1.5295166921644185E-03
               2.5597638265980201E-03
               1.4268485570726574E-03
               1.0184616562034111E-03
               8.8075447157867995E-04
              -9.1273681971398434E-04
              -1.1267593472844585E-03
               1.4039806777395747E-04
              -1.3702830565759123E-03
              -1.6241205651747574E-03
              -2.5984210834823752E-03
              -2.0225234133727063E-03
              -8.1904696770626487E-04
               1.1396489639498380E-03
              -1.6877138099936793E-03
               1.1777764269599439E-03
               1.5545998570064847E-03
              -4.9323372902142426E-03
              -7.1061388530369095E-04
               1.8121076510962271E-03
               1.4122142009809374E-03
               1.5934504671023916E-04
              -8.9576257812132971E-04
               2.7872881966592394E-03
               1.0781081023163697E-03
              -3.9968735602879842E-03
              -8.6107886384527909E-04
              -3.6630759246463699E-03
              -1.0973123579982164E-03
               3.4009957045857920E-04
               5.8335973642587079E-04
               3.4720986378687597E-04
               2.7816343446769561E-03
              -2.1808987972499333E-03
              -9.9081004010520297E-04
               1.4919457482074402E-03
              -1.1752240672350740E-04
              -1.9592706244795964E-03
              -7.4001690636640838E-04
              -2.9039461654190631E-03
              -6.1104491043520004E-05
               2.0439177728626390E-03
               3.9532071520695763E-04
              -3.7359384098504074E-03
               1.5478335455703727E-03
               3.5067136927910475E-03
              -1.0997883211356016E-03
              -7.6578442782955806E-04
               3.3510022542608694E-04
              -1.2506411705160234E-03
               8.4192593958591026E-04
               1.1384722255326062E-03
              -5.3415493143535945E-03
               2.2565494847891924E-03
               1.7739345512769770E-03
               1.6912418264849534E-03
               2.2095884500940486E-03
               3.9021593740079681E-04
               4.7350127638589789E-03
               1.7993598422477465E-03
              -1.0168127246333156E-03
               1.1157906415752462E-03
              -3.2734246264333423E-03
              -4.2336024009237911E-03
               3.6361334921371793E-03
               2.4914415570221856E-04
               1.2683876879878864E-03
              -3.3572986523207143E-04
               1.1686454609753890E-03
              -1.3245310933092489E-03
              -6.8315106294996068E-04
              -2.7229224140736027E-03
              -1.6658715788082613E-03
               1.0586990092260485E-03
               2.0444335332753067E-03
               1.2877366942464505E-03
              -8.1708999503518696E-04
               3.6052990187977895E-03
               2.8504137613460652E-03
              -2.1005878063172006E-03
              -1.0880150530753292E-03
              -5.2902019766723919E-06
               4.4326181553878274E-04
               3.0935908808594121E-03
               1.3120535276500292E-03
              -1.9789334423765247E-04
              -4.8005964449976537E-04
              -2.0667265776867583E-03
              -1.2394472877458645E-03
              -7.7529937317094111E-04
              -1.0391098337008877E-03
              -1.8316476232736821E-03
              -6.2656402445094000E-04
              -2.4242165604422597E-03
              -3.3486873712874725E-04
              -6.1169857168414180E-04
               3.3185066257759291E-04
               3.6504280630026780E-03
              -1.6144330938129496E-03
              -3.7308106560645109E-04
               4.9537340014482994E-03
              -8.5619204037124268E-05
              -3.5718332379697205E-04
              -1.2133077916372374E-03
              -5.3516231272723110E-04
               1.0995392445912150E-03
              -9.7279657063285472E-04
               2.0793505000975612E-03
               1.0203880723076537E-03
               6.1554828920258088E-04
              -1.0020987063657646E-03
               2.5504996767594370E-03
              -2.0865508955765118E-03
               2.9009904818291868E-03
              -1.0660173718988505E-03
              -1.6730109832686667E-03
              -4.2053280815745582E-03
               1.9897541241704741E-03
               2.9152482805446865E-03
               1.5366109857216741E-03
              -1.0257521670773226E-04
               1.1281204469762258E-03
               1.1305653381189608E-03
               2.1816920073236437E-03
               1.6400311154261527E-03
              -7.9228134892738184E-03
              -1.0947831211221236E-03
               4.2071382325913965E-04
              -4.2864448187593220E-03
               4.5849536040220109E-04
               1.1298954081725397E-03
               1.5314335849988309E-03
              -1.7557623633384322E-03
              -9.4334907515215382E-04
              -4.5678840300712184E-03
              -2.6895192585810108E-03
              -2.3103609601457195E-03
              -2.7197600802545989E-03
               2.5105221704139068E-03
               8.7957969110826460E-04
               7.0591615897175732E-04
              -5.5628730524996360E-03
              -1.7853099965974982E-04
               6.1301514529141796E-04
              -9.8862132268586205E-04
               3.3068345494218165E-03
              -3.1720278510352145E-03
               1.6956389428691401E-04
               2.7601944036153947E-03
              -1.7723146990058594E-03
              -1.9543107102163002E-03
              -1.6029589370789201E-03
              -1.1931574529721197E-03
               9.3283476301669627E-04
               3.0712298041610927E-03
              -3.0739444448871760E-03
              -1.1690979887696187E-03
               2.4576904716587587E-04
              -2.6433755748878065E-03
              -4.4236107617035341E-03
               7.0231078887905583E-03
              -1.5362773275124401E-03
              -2.9586432738236594E-03
              -2.8159415836494499E-04
               2.4525119442930974E-03
              -1.3511789733094603E-03
              -2.3952939411754502E-03
              -7.9579358934928719E-04
              -4.2379049228128927E-03
               9.0648855217945212E-04
              -1.0592013171324302E-03
               1.5483867843324587E-03
              -4.7811581679399950E-03
               1.7521217245552237E-03
              -9.9559075881298551E-04
               7.5335190411765333E-04
              -1.4663052861677392E-03
              -1.8486771420836564E-03
               6.9413140153678945E-04
               5.4967216024354960E-03
               2.3084168199392365E-03
              -6.7898441847874845E-03
              -2.3864054012234497E-03
              -2.0213239450723088E-03
               9.3982699749227514E-04
               7.8671702797336097E-04
               2.3459988338398654E-03
              -1.4694448544615415E-03
              -3.6882561953225793E-03
              -9.8670394174341471E-05
               6.6555335899607185E-04
              -5.1606808951176091E-04
              -2.9002492054640409E-03
               1.0803493751172326E-03
               2.1676334734703879E-03
              -2.9319794425391728E-03
               3.3583204448388131E-06
               7.0192996590190760E-03
               2.4991250851382320E-04
              -3.4004467944183667E-03
               2.1826755044476769E-04
               3.5240147568702538E-03
              -1.3069718918050546E-03
               7.2923207028960499E-04
              -2.3915432554084638E-03
               1.2135452300288444E-03
              -1.5348312565449927E-03
              -1.8507512015223831E-03
              -1.4029674875088529E-03
               5.6297890750928962E-04
               1.6015194978451753E-03
               1.3462991662102936E-04
               7.5540928044330840E-04
              -5.3756752867467053E-04
               2.7373521685912518E-03
              -1.6089699255822498E-04
               3.7196576899389488E-03
               1.3258697921532685E-03
              -1.3492303822814090E-04
               7.7442346312370865E-06
               6.6672311037312690E-04
               5.6560213864857148E-03
              -1.1011276664983952E-03
              -1.0881730823051380E-03
              -2.3665190682538558E-03
              -1.0093296548416579E-03
               1.5340865323698067E-03
               7.2101159078643331E-05
              -1.6005642426785761E-03
              -3.7003160199180032E-04
               9.2487642382432843E-04
              -2.8360875529705192E-05
               1.6222194024583382E-05
              -1.3459679161173040E-03
               1.1259164314719010E-03
               2.8585897371565853E-03
               4.8610594509919381E-04
              -1.8265033949815728E-03
              -6.7265171139159669E-04
              -2.9537888426819470E-05
              -3.5924702435083276E-03
               3.4861772473105466E-03
               3.5780023532230821E-04
               2.0125528357958400E-03
              -1.3614484671840424E-03
               4.3028797442757076E-04
              -1.9528225286615073E-03
               1.4126799840144112E-03
              -5.8430939012383458E-04
               1.7338480333001036E-03
              -7.2023638042023434E-04
               7.3041574789066096E-04
               5.6062947502122486E-03
              -4.0407507400176184E-03
               2.0333363613408823E-03
               2.1568010841404380E-04
               1.3393682508413812E-03
               2.2796057815310687E-03
              -2.4031345469564453E-03
               6.8297747672873567E-04
               1.3413978139577864E-03
              -7.8587167675089171E-05
              -6.4156755510603007E-03
               5.5477682567384493E-04
               4.1075845994548263E-04
               1.4427133868733912E-03
              -3.5158767931638038E-04
              -5.1619347136177673E-04
              -1.2838785089998284E-03
               1.4266588372655860E-03
               1.4247108119842529E-03
              -2.7713801616011747E-03
              -4.4231024771411074E-04
              -4.4477854191409335E-04
              -8.9265733887743354E-04
               8.7846028250142066E-04
              -3.0914219699755881E-03
               3.0882317958742913E-03
               5.3919126498248708E-04
              -1.3803307989520752E-03
               4.8311731212022954E-04
               6.6919437501317147E-04
               1.9507882313029800E-04
               2.6104293552355563E-03
               2.5051689522660615E-03
              -1.0144459188690469E-03
              -6.1726581695897679E-04
              -6.7777684602647321E-04
               7.1650965279080085E-04
              -1.2146744129968581E-03
               2.0175740716553320E-04
              -3.1947403693285549E-03
              -7.6166900264914282E-04
              -1.9917757085816579E-04
              -2.7616927626254451E-03
               3.4774031197701730E-03
              -3.3188096944533354E-03
               2.5272378879154797E-03
               2.0211377636755955E-03
               5.9093086624675620E-03
               5.0598506054852391E-04
              -4.1723071274967123E-04
              -2.4966916295959688E-03
              -3.8004647557882071E-03
               4.7567995444167113E-03
               3.3452553076592289E-03
               2.2084611699343180E-03
              -3.1530746279004049E-03
               9.7974600868824756E-05
               5.8265734583593941E-04
              -8.5879161174234160E-04
              -2.3834965108522283E-03
               1.7844529772618216E-03
               1.5277844446995661E-03
               3.2900883252395489E-03
              -3.4989923847986125E-03
              -3.4720261306984915E-03
         &END THERMOSTAT_ENERGY
         &RNG_INIT
Wiener process for Thermostat # 1        1 F T T   9.2485995047714076E-01         141369787.0        3964742060.0         752319834.0         234433858.0         993773894.0        2703992249.0             12345.0             12345.0             12345.0             12345.0             12345.0             12345.0             12345.0             12345.0             12345.0             12345.0             12345.0             12345.0
Wiener process for Thermostat # 2        1 F T T  -1.0963241019050816E+00        4013428283.0        1045735436.0        1229911537.0        1681083844.0        4162519579.0         262193691.0        3692455944.0        1366884236.0        2968912127.0         335948734.0        4161675175.0         475798818.0        3692455944.0        1366884236.0        2968912127.0         335948734.0        4161675175.0         475798818.0
Wiener process for Thermostat # 3        1 F T T  -1.4746283140478837E+00        3038676690.0        3914633589.0        3497572719.0        2539399238.0        2935285593.0        2188672064.0        1015873554.0        1310354410.0        2249465273.0         994084013.0        2912484720.0        3876682925.0        1015873554.0        1310354410.0        2249465273.0         994084013.0        2912484720.0        3876682925.0
Wiener process for Thermostat # 4        1 F T T   5.2055221318498113E-01        2745842475.0        3409238900.0         704284547.0        3343615329.0        1073976853.0        2729166717.0        2338701263.0        1119171942.0        2570676563.0         317077452.0        3194180850.0         618832124.0        2338701263.0        1119171942.0        2570676563.0         317077452.0        3194180850.0         618832124.0
Wiener process for Thermostat # 5        1 F T T   7.2147618469301933E-01        1820366293.0        3511946771.0        1049458412.0         163723413.0         853857199.0        3443372158.0        1597262096.0        3906379055.0        3312112953.0        1016013135.0        4099474108.0         275305423.0        1597262096.0        3906379055.0        3312112953.0        1016013135.0        4099474108.0         275305423.0
Wiener process for Thermostat # 6        1 F T T  -1.4608654405666230E-01         518855168.0        3573366352.0        1623167108.0        2859244881.0        2858821046.0         131009781.0          97147054.0        3131372450.0         829345164.0        3691032523.0        3006063034.0        4259826321.0          97147054.0        3131372450.0         829345164.0        3691032523.0        3006063034.0        4259826321.0
Wiener process for Thermostat # 7        1 F T T   3.7794943631212129E-02         292240061.0        1573562817.0        1246854435.0        4003966141.0        3680198535.0        2992804698.0         796079799.0        2105258207.0         955365076.0        2923159030.0        4116632677.0        3067683584.0         796079799.0        2105258207.0         955365076.0        2923159030.0        4116632677.0        3067683584.0
Wiener process for Thermostat # 8        1 F T T   1.0489238423662332E-01        1145855740.0         321171565.0        3135471227.0          18896987.0        1981678364.0        3378363105.0        3281794178.0        2616230133.0        1457051261.0        2762791137.0        2480527362.0        2282316169.0        3281794178.0        2616230133.0        1457051261.0        2762791137.0        2480527362.0        2282316169.0
Wiener process for Thermostat # 9        1 F T T   7.5739903506838971E-02        3685491539.0        2956815965.0         226597296.0        2588408695.0        4238700122.0        1541612069.0        3777646647.0        1837464056.0        4204654757.0         664239048.0        4190510072.0        2959195122.0        3777646647.0        1837464056.0        4204654757.0         664239048.0        4190510072.0        2959195122.0
Wiener process for Thermostat # 10       1 F T T   9.5422331224618656E-02        3012111466.0         419970597.0         493772627.0        2785620744.0        2359836853.0        2970812646.0        4215590817.0        3862461878.0        1087200967.0        1544910132.0         936383720.0        1611370123.0        4215590817.0        3862461878.0        1087200967.0        1544910132.0         936383720.0        1611370123.0
Wiener process for Thermostat # 11       1 F T T  -1.0158032913049206E+00        2034149011.0        3042899772.0        3247767348.0        1646846124.0        2188388880.0        2034689024.0        1683636369.0         362165168.0         814316280.0         869382050.0         980203903.0        2062101717.0        1683636369.0         362165168.0         814316280.0         869382050.0         980203903.0        2062101717.0
Wiener process for Thermostat # 12       1 F T T  -8.8025598137643746E-01        3075199786.0        2614023291.0         194686418.0        4102555099.0        1429891507.0        3251807661.0         272317999.0         166758548.0         310112982.0         201045826.0        1680231254.0         118290799.0         272317999.0         166758548.0         310112982.0         201045826.0        1680231254.0         118290799.0
Wiener process for Thermostat # 13       1 F T T  -1.7198356422392445E+00        2362466573.0        3620530975.0        2498163346.0          30262348.0        1910389873.0        1149447571.0        2245755202.0        1652682525.0        2865544364.0         721509566.0         209733568.0         592362218.0        2245755202.0        1652682525.0        2865544364.0         721509566.0         209733568.0         592362218.0