 # Version information for this restart file 
 # current date 2024-11-21 20:34:31.259
 # current working dir /scratch/work/courses/CHEM-GA-2671-2024fa/students/zz10074/comp-lab-class-2024/Week12-IntroAIMD/Runs_Water
 # Program compiled at                              Sat Dec 12 18:27:15 EST 2020
 # Program compiled on                                         cs001.nyu.cluster
 # Program compiled for                                                nyu-intel
 # Source code revision number                                       git:8c64c6e
 &GLOBAL
   PRINT_LEVEL  LOW
   PROJECT_NAME water_aimd_1ns_every0.5fs
   RUN_TYPE  MD
   WALLTIME 21600
 &END GLOBAL
 &MOTION
   &GEO_OPT
     OPTIMIZER  BFGS
     MAX_ITER  100
     MAX_DR     3.0000000000000001E-03
     &BFGS
     &END BFGS
   &END GEO_OPT
   &MD
     ENSEMBLE  NVT
     STEPS  2000
     TIMESTEP     4.9999999999999994E-01
     STEP_START_VAL  153
     TIME_START_VAL     7.6500000000000057E+01
     ECONS_START_VAL    -1.1023558357480233E+03
     TEMPERATURE     3.0000000000000000E+02
     &THERMOSTAT
       TYPE  GLE
       REGION  MASSIVE
       &GLE
         NDIM  5
         A_SCALE     1.0000000000000000E+00
         A_LIST     1.8595758612559999E+02    2.7263853498399998E-01    1.1526100454610001E+01   -3.6414578262600003E+01 \
             2.3173375816020001E+02
         A_LIST    -2.7809524712060002E-01    8.5951591808710006E-05    7.2189048017650004E-01   -1.9844539343859999E-01 \
             4.2409257583420001E-01
         A_LIST    -1.4825808131210000E+01   -7.2189048017650004E-01    1.3590902121280000E+00    5.1498896280349999E+00 \
            -9.9949268450990001E+00
         A_LIST    -1.0372189126880000E+01    1.9844539343859999E-01   -5.1498896280349999E+00    2.6661910891169999E+01 \
             1.1507715495310000E+01
         A_LIST     2.1801346360420001E+02   -4.2409257583420001E-01    9.9949268450990001E+00   -1.1507715495310000E+01 \
             3.0958394565589998E+02
         &THERMOSTAT_ENERGY
              -1.7352836036500102E-03
               1.0689412485557939E-03
              -6.4029462427074016E-05
              -3.0142176359558293E-03
              -1.7332370601174801E-03
               3.2900152811775733E-03
              -2.5466466142247046E-03
               4.2269288297687208E-04
               4.3709071602489394E-03
              -2.5253146832964800E-03
               3.4096370956984462E-03
               1.2406214589790845E-03
               2.7114283564980573E-03
              -1.2241377797616898E-03
               6.0671013084581649E-04
              -2.0828573311591722E-03
               1.7258086852576114E-03
              -3.0447453222683767E-03
               1.3516383496989704E-03
              -7.2290571028090335E-04
              -1.0121050610213639E-03
               2.4614852201077490E-04
              -3.5793167520282293E-04
               2.4594766111982833E-03
              -3.5675021360891670E-03
              -1.4215256521334571E-03
               4.6637625446448571E-03
               1.1651960238688018E-03
               6.2023629208935978E-04
               3.4867170089054487E-04
              -3.6710535595045737E-04
              -2.2840689997940576E-03
               3.7817132546361630E-06
               2.5151881190259811E-03
              -2.7794069762753842E-03
               3.3063988568615478E-03
               1.9383126500666063E-04
               7.6828249591902190E-06
              -2.7494925363400805E-03
               2.0334695823822730E-03
               1.3094746530008391E-04
              -2.1590085568016391E-03
              -3.5115236894726475E-04
               1.9885724627211002E-03
              -2.1767257158513105E-03
               1.2165776665022691E-03
              -6.8214572241504510E-04
               2.2719299183260463E-04
              -1.2749679617107047E-03
              -8.4315431392580206E-04
               2.5101249153398160E-03
               4.5325834900836491E-04
              -1.2278558597494005E-04
              -8.4371693661056905E-04
              -2.4066212681354065E-03
              -5.8499004306898097E-04
              -2.1311353757404528E-03
               1.0457921269554575E-03
               2.6994583587541558E-03
              -3.2874827865112472E-03
              -4.7412843573642037E-05
               3.6030215379903776E-03
              -1.2512452733768166E-03
              -2.1672052037109967E-04
              -5.0609488018958171E-04
               1.1881672268880387E-03
              -4.5592369630906597E-03
               2.0293183459204043E-03
              -1.4985925144540729E-03
               1.3872858884130951E-03
               2.5999349182119005E-03
              -1.1245529660876955E-04
              -7.3588530364259970E-04
              -3.0968983046813906E-05
              -1.2696413784526800E-04
              -1.4536199719448486E-03
               4.9272739816197961E-04
               3.0274356051809121E-03
               3.8746257335339758E-03
              -9.8047351034244901E-04
              -4.2578968892230873E-04
              -3.2215261589951382E-04
              -8.4911596142785107E-04
               2.0808937415997769E-04
               3.0320116819673314E-03
              -1.6784649132154858E-04
               1.0565701391133508E-04
               1.7540620386338889E-03
              -1.0713715527377419E-04
              -2.0939846887592806E-03
               2.9629869871535038E-03
              -2.4859407946607819E-03
               6.6924190968440387E-04
               1.4131538021216247E-05
              -4.1701790400048610E-03
              -1.0999243618549466E-03
               3.3693522714984474E-05
              -3.5040802336646346E-03
               2.4782873065723539E-03
               1.1440960114850189E-03
              -2.9946153415681546E-04
              -1.9418650540282973E-03
               7.9744350010565833E-05
               6.4365323923557612E-04
               3.3134946647347262E-03
              -2.6580634609972712E-03
              -1.4527861857824970E-03
              -1.2977748294308996E-03
               3.2362505237876192E-03
              -2.1863620772411081E-04
               4.4406857130934842E-03
               4.8515480425965866E-04
              -4.4090521895405520E-05
               6.0744976331747892E-04
              -1.2209375180995542E-05
               3.9437592641433043E-03
              -9.0078862676331202E-03
               1.5090520093007590E-03
               4.8098528982747768E-04
               5.1478930016807614E-04
               3.7010253956383738E-04
               2.9781672922959691E-04
               4.1750235083110061E-03
               1.3375789525050771E-04
              -3.3983986856442700E-03
               1.9822253804931264E-04
               1.4631994956208097E-03
               3.5638540384920112E-03
               5.0880024390760311E-04
               2.1102122968126667E-03
              -2.4123456963248864E-03
              -1.8028329130858659E-03
              -1.4970751263304871E-03
              -9.3892443081132178E-04
              -1.1294619610948853E-03
              -7.1707505823756425E-04
              -6.8722219215700410E-04
              -2.2066487429322238E-03
               2.7876237599970565E-04
               1.1475924835726774E-03
               1.9648999684711808E-03
               1.9385372212104744E-03
               5.9604135461584500E-04
              -3.7088185725793260E-05
              -2.4680261479524627E-03
               9.3697800512556673E-04
               1.0580508678036914E-03
               2.2700850063235903E-05
              -1.8705243308514477E-03
               3.1583262306123950E-03
               4.2894671691070814E-04
               1.8699609929939613E-03
              -2.2854178828274159E-03
              -3.8914104196945468E-04
               4.2681127454395151E-04
               4.5211936943460396E-04
               1.2321971905879961E-03
              -1.7715931497715998E-03
              -2.9880530636228878E-03
               1.3412572491479048E-03
              -2.3914422559416591E-03
              -4.1767762391189010E-03
              -5.4203876155234246E-04
               2.2221030634798122E-04
               2.2297583005018670E-03
               4.6600359801189485E-03
               2.4693678917373577E-03
              -1.0826551589730745E-04
              -5.6519680860926619E-03
               1.1908213747314595E-03
              -1.0177684390356940E-04
              -1.8926786002285766E-04
               1.4018578184242696E-03
              -1.5520535031190519E-04
               9.7996189157839217E-04
              -1.4901140530033091E-03
               8.0903201630635460E-04
               1.1070003101250850E-03
               3.0000755148222201E-04
               2.4340477194651818E-03
               1.9229439240176161E-04
              -7.6939225399900871E-04
               1.5565372154077715E-03
               4.8573775416688208E-04
              -1.0554980288227144E-03
               4.4967776192113762E-05
              -8.3195688491661179E-04
              -1.1540660053654833E-03
              -7.9169630230063986E-04
               1.3534280940153127E-03
               7.8803548587996547E-04
              -2.6228817498783336E-03
               3.3979953850044636E-03
              -3.8123460945324416E-03
               9.1492678321329114E-04
              -5.9098780745336262E-03
               2.0847274329691018E-04
              -2.0473856491128660E-04
              -4.5673984976937044E-05
              -8.5679400244228078E-04
               4.7670790916369012E-04
              -3.6577440280433033E-04
               1.5684643205805821E-03
               1.4851588186136702E-03
              -4.2252071632581951E-03
               1.4665883595665433E-04
              -9.8393231946232690E-04
               1.6799044320581192E-03
              -1.2867485453430267E-03
               3.7670613599090582E-03
              -1.0106223180671946E-03
               1.7592290230150279E-04
               2.0132818875609020E-03
              -4.7455907800947649E-03
               3.3200589776317822E-03
               4.6823473950709958E-03
               2.9397236055358524E-04
               4.7743459448158142E-04
              -2.5750855822127411E-03
              -1.4457902581680355E-03
               3.5294312545198492E-03
              -1.7665921170878268E-03
               2.2969243809705217E-03
              -9.6711970799661436E-04
              -1.0567199619498349E-03
               5.0072744140767882E-04
               3.7918112600864495E-04
               6.6530150168054778E-04
              -1.0054522854007568E-03
               3.3986551489856355E-03
              -6.4299240385952514E-04
               2.7640969607638003E-03
              -4.3361933382809358E-04
               9.7881500530584090E-04
               3.3707886376190431E-03
               1.0318712756465171E-03
              -2.2245491978546204E-03
               2.6411494968919874E-03
              -1.1642533854924429E-03
               5.7848290151081024E-05
              -1.9417262578811197E-04
              -2.1486518257264851E-03
               2.9036533326161837E-03
               8.0347812624306282E-04
               1.1517769284587070E-03
               7.9027313332293069E-04
              -1.5439129646917750E-04
               5.2512230111958537E-04
               6.8551893520582682E-04
              -4.1348628524625290E-03
               7.1259938910091052E-04
               2.5425332384920981E-03
              -7.8874094913543649E-04
               6.9808922045520936E-04
              -2.2471129242050357E-03
              -2.0461885621075697E-03
              -2.8231123865702329E-03
               7.7321346908197901E-06
               5.9738600965447382E-04
              -1.7060892227222751E-03
               2.8974587721912184E-03
               1.0412400680930552E-03
               1.1384599272314258E-03
               1.1480822960472376E-03
              -5.9348831947451074E-04
              -9.6265552693024334E-04
               3.2216091687227097E-04
              -8.9649187693709382E-04
              -1.7053311014832717E-03
              -2.7197959025737420E-03
              -9.2445776211459209E-04
              -6.6561538754644648E-04
               1.0747165380973703E-03
              -1.7147774880330248E-03
               1.2474481771721081E-03
               1.0147153938791071E-03
              -4.8727542500867759E-03
              -5.9030668906666188E-04
               1.8451186124736384E-03
               1.5091081539511881E-03
              -1.5216216563522370E-04
              -7.2210964836258917E-04
               2.7248158851271038E-03
               3.9719421580812703E-04
              -5.0993943629434072E-03
               4.9784809746629757E-05
              -3.6678317054504718E-03
              -1.0842206749062397E-03
               1.5978250563673389E-04
               3.8678520664708589E-04
               3.2265921005740955E-04
               2.6116831830771117E-03
              -2.2894034006146527E-03
              -1.4154760436157600E-03
               1.4251851183531062E-03
              -1.0927024330810427E-04
              -1.6413673401460920E-03
              -1.4514738241425888E-03
              -2.5455296472767183E-03
              -7.0425126595500119E-05
               1.4716752121580138E-03
               5.0088403296781191E-04
              -3.7744576855249013E-03
               1.5313854471756076E-03
               3.6882076741421447E-03
              -1.0564219137033203E-03
              -8.0757935896105641E-04
              -1.7148078369418773E-04
              -9.8394115877451773E-04
              -2.0609647851380117E-03
               9.5456848130131178E-04
              -5.8142072638772274E-03
               2.0660393655056574E-03
               1.9083013822661764E-03
               1.6697492207190124E-03
               2.1871825685923522E-03
               3.4796842303703860E-04
               4.8214299355872365E-03
               1.4820723244919631E-03
              -1.1752151693768843E-03
               1.5542173285238345E-03
              -2.4058786587565035E-03
              -4.3832565442107558E-03
               3.6019890530663988E-03
               1.5425506146642964E-04
               1.2615405107417460E-03
               2.6674093716406782E-04
               1.1173410541244324E-03
              -1.5571634818476014E-03
              -6.0569855595010030E-04
              -2.4405485551765825E-03
              -1.6044743912334051E-03
               2.8449262230977111E-04
               1.8275672060231462E-03
               1.1656514549916585E-03
              -5.4278173560979442E-04
               3.4202067214910551E-03
               2.9076295167238262E-03
              -2.6155092363035239E-03
              -9.8253864205610861E-04
               3.8794479446307262E-04
               4.9994629384664464E-04
               3.0872637867753131E-03
               1.1398998377617469E-03
               3.0440824608942612E-04
              -3.5787708874285919E-04
              -2.0176209377188604E-03
              -1.2482756812930386E-03
              -1.2799626640535170E-03
              -8.5442411902126735E-04
              -1.3559001505721027E-03
              -1.0519783840439352E-03
              -2.4216937208312106E-03
              -2.2941132736912628E-04
              -5.3279897864319807E-04
               3.3367748179335889E-04
               3.4784465285768659E-03
              -1.4528546365275769E-03
              -9.1820046101529613E-04
               5.0148395658750535E-03
              -1.4389584241429246E-04
              -2.7583722165868427E-04
              -1.0756236680265741E-03
              -8.4641845652517643E-04
               7.6249708791556784E-04
              -8.4971918244056198E-04
               2.1518270489601374E-03
               1.0019301185568270E-03
               7.4045397780174774E-04
              -1.1546891904366673E-03
               1.9947737453475580E-03
              -1.5976561160830815E-03
               2.7271187365022660E-03
              -1.1286695351753161E-03
              -1.5713991565076912E-03
              -4.2777117966859655E-03
               1.9526890277595257E-03
               2.7211864559087175E-03
               1.4538716360170511E-03
              -5.6154611856226693E-05
               1.1023720313563337E-03
               1.7833555592190655E-03
               2.2331021991498050E-03
               1.0049357009792050E-03
              -7.9488248310427174E-03
              -1.7143550366182630E-03
               1.4420170986835404E-03
              -4.3903785625175320E-03
               3.7743050421314194E-04
               1.0365434633270176E-03
               1.5167941329775683E-03
              -2.0263905368608816E-03
              -1.0843977317521506E-03
              -3.9770012070878321E-03
              -2.0300012632757116E-03
              -2.1987812457940092E-03
              -2.6983128258048269E-03
               2.0995448002678755E-03
               5.5822007451292329E-04
               8.0505488113365945E-04
              -5.0033634563131325E-03
              -2.4128056266577635E-04
               7.8208416744607431E-04
              -1.1384006076521707E-03
               3.3336133895850964E-03
              -2.8333521187393776E-03
               1.8637851698963156E-04
               3.1550144267726760E-03
              -1.3045272073785494E-03
              -1.7507034502958602E-03
              -2.3294566381679514E-03
              -1.1907808173209169E-03
               1.0579096694195650E-03
               2.8901255493332589E-03
              -3.3559242148535921E-03
              -5.1328457588269909E-04
              -4.8613315509688480E-04
              -2.9840036190396540E-03
              -4.3684034134023088E-03
               6.8903273255383089E-03
              -1.8195670739991066E-03
              -3.0814765281728515E-03
               8.3955089261518315E-04
               2.5110121179105203E-03
              -1.2066484934978427E-03
              -2.2127150225319178E-03
              -1.5506993069311894E-03
              -5.1021639594542936E-03
               7.1138331299498367E-04
              -1.4103866606728344E-03
               1.2875907797113583E-03
              -4.7785431126806093E-03
               1.9039916177169670E-03
              -1.1477788651824299E-03
               6.9737156170962056E-04
              -9.0915958271457471E-04
              -2.2172716061986089E-03
               6.0043271220796299E-04
               5.5719905956907656E-03
               3.0431659877772671E-03
              -6.9288930939260468E-03
              -2.1637655277046155E-03
              -1.9799196991238340E-03
               8.6353915079471219E-04
               4.7408018403510778E-04
               1.5115086635182511E-03
              -3.9471231120808705E-04
              -3.2664774357293513E-03
              -1.1976073357735663E-04
               6.5427584164998696E-04
              -4.4191309829240031E-04
              -2.9115045317002742E-03
               1.0589374866399070E-03
               2.1305711292810372E-03
              -2.9423006656574486E-03
               7.1156827562223357E-04
               7.1295546603107720E-03
               9.4753884760923903E-04
              -2.7792588679561941E-03
              -2.0988679667021206E-04
               2.7100636254699119E-03
              -1.2344011458804516E-03
               7.6626458679347428E-04
              -2.4467353954217771E-03
               9.8062679963329541E-04
              -1.7786890554183183E-03
              -1.7565979768546143E-03
              -1.3821742639377628E-03
              -5.8187406842654310E-05
               1.4482748094852569E-03
               1.4052333798981228E-04
              -6.4344451208086422E-04
               1.8597141344087436E-04
               2.6866935229391369E-03
              -4.4277676146208705E-04
               4.1291773793844617E-03
               1.2336553080822172E-03
              -2.4114324592141055E-05
               1.4317218878014267E-04
               6.6796827925090171E-04
               5.6854781337262773E-03
              -1.3373687730066255E-03
              -1.4605854466099046E-03
              -2.5409582248603359E-03
              -2.0658450418608496E-03
               1.9564576183240061E-03
               7.8459423280624488E-05
              -1.5493021386054587E-03
              -3.2001642338191081E-04
               9.5927246144723725E-04
              -7.3080138526428120E-05
               3.9988512138263246E-05
              -1.2767736093975736E-03
               5.7280258642256477E-04
               3.0417374754126967E-03
              -6.9817239754119674E-05
              -1.2849280856964426E-03
              -1.0316821939671227E-03
              -1.5667836536892310E-04
              -3.9744743633908317E-03
               3.4341846415539340E-03
               3.6678379589369814E-04
               1.9505773465167610E-03
              -1.7661971233111828E-03
               5.8204329291609640E-04
              -2.2695235761280687E-03
               1.3724647848226729E-03
              -1.3621590967073427E-04
               1.5567070083517629E-03
              -8.7553061835181053E-04
               7.5582386550477666E-04
               5.5040840397868225E-03
              -4.2553326847722915E-03
               1.7791073534013232E-03
               3.3394012517444071E-04
               1.1398309213417497E-03
               2.2028166040013956E-03
              -1.5412965324783628E-03
               5.2622430125364231E-04
               1.2391657354132309E-03
              -4.2077006438652205E-04
              -6.3254043530971294E-03
               5.1421891609472416E-04
              -7.2692255001220100E-04
               1.3663415031478917E-03
              -2.1204771137166842E-04
              -4.9393005088098775E-04
              -1.0666915618453478E-03
               1.9870164110300840E-03
               1.6003913279828614E-03
              -2.8830020267137275E-03
              -8.7049669729565525E-04
              -3.3643374725067325E-04
              -1.6192797501483999E-04
               1.0621404508910808E-03
              -3.0152016537681506E-03
               2.9049367199640679E-03
               5.8047037550718170E-04
              -1.3083522478736782E-03
               2.2733253897837659E-04
               7.0178367614769945E-04
               1.9546155239551422E-04
               2.6318482259008531E-03
               2.5337162158079142E-03
              -1.0079599609870416E-03
              -6.0342188324191541E-04
              -9.0844072270684331E-04
               7.1400387227674633E-04
              -1.0575774306690125E-03
               3.3258402941539761E-04
              -3.4208572348004085E-03
              -8.7955615312698980E-04
              -4.4997658332778532E-04
              -2.4931885342614891E-03
               3.4979229827573357E-03
              -3.4331434050414670E-03
               2.4591390055651030E-03
               2.0090982913547576E-03
               5.5528382824992211E-03
               5.0847966933499991E-04
              -1.9643314495132520E-04
              -2.3665294273121245E-03
              -3.7647617893475159E-03
               4.9014392378553600E-03
               3.4623571350727361E-03
               2.2865159126058926E-03
              -3.1614172370675233E-03
               1.4427402498202484E-04
               7.4543172550777534E-04
              -1.4154009188364399E-03
              -2.3234423694643721E-03
               1.7067897655261978E-03
               1.5519844033399953E-03
               4.0724288138140781E-03
              -3.3103838595078382E-03
              -2.9751594346507765E-03
         &END THERMOSTAT_ENERGY
         &RNG_INIT
Wiener process for Thermostat # 1        1 F T T  -7.3306038023703268E-01        3450478288.0         726963470.0         563698574.0        4156547072.0        3730334804.0        2796540121.0             12345.0             12345.0             12345.0             12345.0             12345.0             12345.0             12345.0             12345.0             12345.0             12345.0             12345.0             12345.0
Wiener process for Thermostat # 2        1 F T T  -3.8434500109512321E-01        3848544557.0        3473463878.0         837227155.0        3526708892.0        1606572571.0        1284479999.0        3692455944.0        1366884236.0        2968912127.0         335948734.0        4161675175.0         475798818.0        3692455944.0        1366884236.0        2968912127.0         335948734.0        4161675175.0         475798818.0
Wiener process for Thermostat # 3        1 F T T   3.1079931479264389E-01         586872465.0        2458884982.0        3788949902.0        3639866942.0        3585295274.0        3641101749.0        1015873554.0        1310354410.0        2249465273.0         994084013.0        2912484720.0        3876682925.0        1015873554.0        1310354410.0        2249465273.0         994084013.0        2912484720.0        3876682925.0
Wiener process for Thermostat # 4        1 F T T   5.2907246291253318E-01        3618677816.0        3972389288.0         248318595.0         337132866.0         581353609.0         791306030.0        2338701263.0        1119171942.0        2570676563.0         317077452.0        3194180850.0         618832124.0        2338701263.0        1119171942.0        2570676563.0         317077452.0        3194180850.0         618832124.0
Wiener process for Thermostat # 5        1 F T T  -8.0345140070035292E-01        4285334478.0         666591898.0        4226295849.0        3969917999.0          28403057.0        1279250850.0        1597262096.0        3906379055.0        3312112953.0        1016013135.0        4099474108.0         275305423.0        1597262096.0        3906379055.0        3312112953.0        1016013135.0        4099474108.0         275305423.0
Wiener process for Thermostat # 6        1 F T T   9.3561711905453115E-01         899893841.0         162378111.0        3038058130.0         801872347.0        1861988854.0        3732291870.0          97147054.0        3131372450.0         829345164.0        3691032523.0        3006063034.0        4259826321.0          97147054.0        3131372450.0         829345164.0        3691032523.0        3006063034.0        4259826321.0
Wiener process for Thermostat # 7        1 F T T  -1.8130641473118703E+00        2064408156.0          65007681.0        1663361982.0        2601317305.0        3073632442.0        1338487486.0         796079799.0        2105258207.0         955365076.0        2923159030.0        4116632677.0        3067683584.0         796079799.0        2105258207.0         955365076.0        2923159030.0        4116632677.0        3067683584.0
Wiener process for Thermostat # 8        1 F T T   1.1307757069378255E-01        3286622279.0        3024193117.0         715256579.0        4079794973.0         787780356.0         732398022.0        3281794178.0        2616230133.0        1457051261.0        2762791137.0        2480527362.0        2282316169.0        3281794178.0        2616230133.0        1457051261.0        2762791137.0        2480527362.0        2282316169.0
Wiener process for Thermostat # 9        1 F T T   5.1948564795235141E-01        3488515831.0        2160433515.0        3858305177.0        1995075570.0        3110534988.0        3015336989.0        3777646647.0        1837464056.0        4204654757.0         664239048.0        4190510072.0        2959195122.0        3777646647.0        1837464056.0        4204654757.0         664239048.0        4190510072.0        2959195122.0
Wiener process for Thermostat # 10       1 F T T  -9.8441045289328932E-01        1188074751.0        1767521996.0        3737721298.0         267739011.0        1219268096.0         618252388.0        4215590817.0        3862461878.0        1087200967.0        1544910132.0         936383720.0        1611370123.0        4215590817.0        3862461878.0        1087200967.0        1544910132.0         936383720.0        1611370123.0
Wiener process for Thermostat # 11       1 F T T   2.7712581882787524E-01        3022426005.0         501522528.0        2297592674.0        2739200418.0         680597855.0        3272339550.0        1683636369.0         362165168.0         814316280.0         869382050.0         980203903.0        2062101717.0        1683636369.0         362165168.0         814316280.0         869382050.0         980203903.0        2062101717.0
Wiener process for Thermostat # 12       1 F T T   5.4195175213226343E-01        4161949696.0        3998641471.0        1092952875.0         299384128.0        1672194559.0        3410025695.0         272317999.0         166758548.0         310112982.0         201045826.0        1680231254.0         118290799.0         272317999.0         166758548.0         310112982.0         201045826.0        1680231254.0         118290799.0
Wiener process for Thermostat # 13       1 F T T   9.6558808964237330E-01        1908838731.0         637012088.0         783866018.0        2074644618.0        2395360232.0        2290379397.0        2245755202.0        1652682525.0        2865544364.0         721509566.0         209733568.0         592362218.0        2245755202.0        1652682525.0        2865544364.0         721509566.0         209733568.0         592362218.0